%%MatrixMarket matrix array real general
%
100 100
9.225737E-1
7.253563E-1
3.8221282E-1
1.8730761E-1
5.235595E-1
4.7067863E-1
9.565017E-1
5.454956E-1
2.017522E-1
7.298764E-1
3.4371272E-1
1.0417185E-1
3.1564233E-1
1.8129553E-1
7.87795E-1
7.6879436E-1
6.165589E-1
3.1953058E-1
5.656496E-2
6.2668055E-1
9.595433E-1
8.5854083E-1
3.9983588E-1
2.7375495E-1
4.2521453E-1
5.1271886E-1
3.8348883E-1
9.2742246E-1
4.4585186E-1
2.707735E-1
5.0301235E-3
2.748346E-1
9.960984E-1
8.4213763E-1
6.8068844E-1
2.7078918E-1
7.8641593E-1
3.6132398E-1
7.720199E-1
8.477182E-2
1.1116948E-1
7.6043725E-1
9.27495E-1
2.4818105E-1
7.4393547E-1
8.7839776E-1
9.68189E-1
2.9790256E-2
1.01027355E-1
4.9769858E-1
8.8527405E-1
3.9860195E-1
6.391137E-1
6.222618E-3
2.5906673E-1
5.7696354E-1
1.5901656E-1
6.919778E-1
7.39543E-2
6.669624E-1
9.103871E-1
4.2931265E-1
1.23824485E-1
3.0492413E-1
5.6875634E-1
2.7769843E-1
6.804592E-1
1.6734505E-1
9.093784E-1
7.6001406E-1
4.8624453E-1
2.3922464E-2
7.466323E-1
8.4623885E-1
4.258366E-1
8.9132226E-1
2.0309569E-1
8.759412E-1
8.367535E-2
5.7562363E-1
4.3808833E-2
5.699529E-1
3.7286592E-1
8.1826746E-1
5.157021E-1
8.374853E-1
7.1628493E-1
4.0205756E-1
5.1305264E-1
5.470027E-1
9.9058086E-1
4.6586892E-1
9.148358E-1
9.099212E-1
1.655576E-2
8.007412E-1
6.4441055E-2
7.6383644E-1
8.139943E-1
4.0675104E-2
4.3613663E-1
4.095017E-2
3.1290707E-1
4.09577E-1
9.521717E-1
4.7928426E-2
2.6834783E-1
4.448242E-1
9.0936154E-1
2.3063539E-1
9.524171E-1
9.635436E-1
8.197076E-1
1.6636857E-1
3.6002946E-1
1.3824597E-1
5.4844014E-2
9.4827795E-1
6.2096167E-1
3.472611E-1
6.780476E-1
1.1036527E-1
7.799042E-1
3.0157256E-1
4.3492857E-1
9.151805E-1
9.2929256E-1
6.221556E-1
3.6813122E-1
8.94612E-1
1.1282781E-1
8.6907946E-2
1.9935046E-1
4.7710344E-2
4.406194E-1
2.2770992E-1
3.8342857E-1
8.615362E-1
6.8562865E-1
7.759559E-1
9.1319686E-1
3.247902E-1
5.5243134E-1
7.339949E-3
6.354757E-1
4.2482647E-1
3.023083E-1
3.6109716E-1
9.693124E-1
8.911327E-1
2.0984761E-1
2.2224303E-1
9.572136E-1
6.482579E-1
1.0384576E-1
3.5493338E-1
8.887744E-1
2.0812152E-1
5.177324E-1
8.8435566E-1
6.859531E-1
8.937737E-1
7.61482E-1
8.909662E-1
2.3502329E-1
5.616174E-1
1.8481918E-1
2.8276193E-1
6.011365E-1
9.198416E-1
8.727441E-1
1.355441E-1
7.863736E-1
4.235201E-1
4.4746757E-1
8.93742E-1
8.2867527E-1
4.3710336E-1
9.4954556E-1
7.133164E-2
3.9596662E-1
5.64688E-1
4.033782E-1
3.6421597E-1
2.6412842E-1
8.20658E-1
2.817302E-1
5.350723E-1
2.3083317E-1
8.581747E-1
9.5411265E-1
7.333406E-1
5.8531624E-1
1.3622293E-2
2.9991144E-1
1.726494E-1
6.477151E-1
8.533226E-1
7.2305924E-1
1.6789347E-1
5.8354276E-1
3.4830317E-1
7.040022E-1
1.4738087E-1
6.453693E-1
3.606143E-1
4.2624998E-1
3.1700715E-1
4.7542763E-1
1.8414874E-1
2.4769582E-1
7.355035E-1
1.10280864E-1
4.8827687E-1
8.108994E-1
6.0084313E-1
5.2060914E-1
7.6610976E-1
3.778375E-1
2.1423651E-1
5.9567828E-2
5.4069173E-1
8.287982E-1
6.715398E-1
2.9780728E-1
4.943956E-1
8.8220847E-1
4.411942E-1
1.5026388E-1
4.0060627E-1
2.6936272E-1
1.2276759E-1
5.6236178E-2
6.791418E-1
4.0297076E-1
5.19733E-1
4.659401E-1
1.7470737E-1
6.7693776E-1
9.015222E-1
3.198932E-1
4.0818594E-2
3.587084E-1
8.533143E-1
7.982238E-1
8.62426E-1
9.660861E-1
7.333186E-1
4.5576724E-1
9.1632277E-1
6.079761E-1
4.531506E-1
2.072278E-1
4.1359586E-1
9.4577456E-1
7.3022443E-1
1.6860889E-1
9.9125224E-1
4.361443E-1
4.4715765E-1
9.627015E-1
9.561173E-1
7.306971E-1
1.579998E-1
2.5985846E-1
6.010533E-1
6.0342383E-1
7.128334E-1
9.047667E-1
5.089619E-1
2.6667237E-1
1.2529372E-1
9.229574E-2
1.5964885E-1
4.665315E-1
2.0898673E-1
6.4845806E-1
4.4001777E-2
8.2447493E-1
7.3504996E-1
3.4790078E-1
2.6499185E-1
7.15956E-2
8.987754E-1
4.9681596E-2
6.250913E-1
1.4574191E-1
8.0588984E-1
1.1220506E-1
1.6365762E-1
8.326538E-1
8.6028683E-1
9.8175395E-1
1.7991034E-2
8.855047E-1
1.5333237E-1
9.3073237E-1
2.3210756E-1
8.975839E-1
2.198084E-1
1.5892299E-1
1.2870763E-1
2.4022421E-1
9.964334E-1
9.882469E-1
4.9069148E-1
3.2183984E-1
5.588615E-1
8.494674E-1
6.9033444E-1
2.2276855E-1
6.537953E-1
9.586704E-1
3.7481543E-1
3.6490995E-1
6.9657946E-1
9.837857E-1
7.9219244E-2
9.1990286E-1
7.8236526E-1
6.1814517E-1
5.0198543E-1
2.756193E-1
3.6974317E-1
2.4117623E-1
7.7712125E-1
9.019807E-1
8.021031E-2
6.3978404E-1
3.801061E-2
9.941606E-1
7.054191E-1
5.9943885E-1
8.3320236E-1
4.8883408E-1
7.5321627E-1
1.06853426E-1
4.8276228E-1
4.606651E-1
2.102534E-1
8.470575E-1
6.4839375E-1
1.1235744E-1
9.995866E-2
5.5603796E-1
9.0599126E-1
8.2033676E-1
1.3387291E-1
2.5606877E-1
4.234403E-1
1.7548572E-1
3.6737415E-1
3.1678322E-1
8.9681804E-2
4.5604005E-1
5.1375353E-1
2.8610306E-2
8.3924127E-1
6.005432E-1
9.2507046E-1
3.397986E-1
7.802795E-1
7.8208774E-1
5.598233E-1
6.273648E-1
8.232845E-1
8.2383764E-1
7.725738E-1
7.0969814E-1
2.1039767E-2
6.99184E-1
9.7137904E-1
4.3699954E-2
9.454092E-1
2.1682124E-1
6.6645277E-1
2.8841442E-1
9.492919E-1
9.3725497E-1
1.036821E-2
1.6309068E-1
8.732129E-1
8.833648E-1
2.2236478E-1
7.569437E-1
7.8292745E-1
6.2039363E-1
6.6355747E-1
1.120316E-2
6.384647E-1
9.047881E-1
9.641055E-1
3.5900363E-1
9.858147E-1
9.048648E-1
5.8887315E-1
9.081622E-1
7.53926E-1
9.3697023E-1
8.141037E-1
5.1112854E-1
9.0235317E-1
9.7430193E-1
8.4747493E-1
2.2558258E-1
2.3797522E-1
4.082998E-1
5.7904357E-1
5.6525356E-1
7.3509383E-1
8.4636724E-1
4.5615253E-1
7.9695994E-1
9.8258454E-1
7.471129E-1
1.822256E-1
8.074998E-1
7.360195E-1
9.542162E-1
2.6142198E-1
6.129179E-1
9.960785E-1
1.6743109E-1
2.6754028E-1
8.1398994E-1
7.0481926E-1
1.6895784E-2
7.0881975E-1
7.497814E-1
8.8422674E-1
9.451199E-2
4.9693152E-1
7.1955985E-1
7.378612E-1
8.326545E-1
1.6636463E-1
9.567693E-1
3.981521E-1
5.5434483E-1
2.6546642E-1
6.4847183E-1
5.539201E-1
8.0618435E-1
9.9161655E-1
8.327784E-3
4.9467817E-1
6.4290214E-1
2.0408435E-1
3.374952E-1
7.1320385E-1
1.1235712E-1
7.146174E-1
8.276153E-1
3.6130965E-1
6.580923E-1
9.324172E-1
1.8814614E-1
6.6083975E-2
9.874404E-1
9.060736E-1
3.2029802E-1
8.3850555E-2
3.140718E-1
1.1162456E-1
6.0162854E-1
7.466242E-1
2.849026E-2
3.829814E-1
1.9333566E-2
1.0852041E-1
6.236566E-1
6.4520925E-2
1.4698705E-1
8.478521E-1
5.9389704E-1
7.642455E-1
6.688093E-1
2.9886535E-1
5.005184E-1
5.923308E-1
9.4871914E-1
1.4989765E-1
8.3364594E-1
4.0765174E-4
5.2757883E-1
6.3178843E-1
6.8389803E-1
7.7440447E-1
2.341104E-2
4.0841666E-1
6.905527E-1
5.278899E-1
6.783356E-1
8.4716165E-1
7.721158E-2
8.476373E-1
7.6542675E-1
1.7292643E-2
6.5875393E-1
4.1985548E-1
2.3698345E-1
4.54121E-1
5.5249894E-1
1.157552E-1
1.1193823E-1
3.773709E-2
3.904143E-1
8.5041356E-1
6.652708E-2
1.9447859E-1
8.2578117E-1
1.5809591E-1
6.145127E-1
6.2116057E-1
1.6259891E-1
8.666994E-1
5.824992E-1
8.076352E-1
3.078622E-1
7.517395E-1
2.6104784E-1
1.5965478E-1
9.185717E-1
6.74009E-1
8.426027E-1
1.995279E-1
1.1640115E-1
3.311273E-1
3.1527013E-2
7.472898E-1
9.5807725E-1
8.3154166E-1
8.53152E-1
6.63501E-1
1.8699624E-1
6.897564E-1
6.20402E-1
3.0566368E-1
5.5917656E-1
2.4652043E-1
1.80615E-1
9.530734E-1
2.5083068E-1
6.304823E-1
8.803165E-1
3.0970043E-1
4.705737E-1
8.0053765E-1
5.6428486E-1
3.918998E-1
8.362801E-1
2.3232904E-1
7.43526E-2
7.6570455E-3
2.0322053E-1
6.2573826E-1
4.5300877E-1
2.0576818E-1
2.9228038E-1
8.340714E-1
3.8660243E-1
1.4736722E-1
6.0023606E-1
1.2387201E-1
1.5257E-1
6.205836E-1
5.936051E-1
6.4797723E-1
9.0991443E-1
5.4109687E-1
5.284848E-1
8.147291E-1
5.6523806E-1
8.2588434E-1
5.927939E-1
1.896577E-1
8.25213E-1
5.786431E-1
9.0664697E-1
1.5636256E-1
4.2629254E-1
9.004343E-1
4.0485787E-1
1.4259662E-1
6.9133246E-1
6.560707E-1
7.3353463E-1
4.9044293E-1
9.520613E-1
3.657175E-1
1.1366019E-1
7.4578094E-1
2.3921508E-2
2.2471844E-1
7.934851E-1
1.0433747E-1
3.508138E-1
6.030071E-1
5.936761E-2
1.9229704E-1
6.8301654E-1
1.4556602E-1
8.167558E-2
7.751585E-1
1.0082765E-1
5.862999E-1
5.532731E-1
1.6351363E-1
2.777469E-1
3.9736736E-1
8.824528E-1
5.171389E-1
3.771221E-1
4.652455E-1
3.8545507E-1
4.5305464E-1
3.7834743E-1
7.985981E-1
8.0823857E-1
7.1023935E-1
6.099097E-2
1.546188E-1
9.6523635E-2
7.5774163E-1
1.8815687E-1
4.893848E-1
7.8489045E-3
5.913546E-1
3.6123103E-1
3.9714435E-1
6.506648E-1
9.7603464E-1
6.434914E-1
3.1819004E-1
7.590983E-1
7.598946E-1
5.844507E-1
6.337737E-1
8.155764E-1
4.186582E-1
1.5771505E-1
9.7311795E-1
3.369983E-1
2.3528382E-1
2.0361008E-1
1.216893E-1
8.602554E-1
6.7041814E-1
7.93119E-1
2.511527E-3
1.078219E-1
6.346806E-1
7.520146E-1
1.0178756E-1
4.2734E-1
6.358694E-1
7.089058E-1
7.74836E-1
4.050465E-1
3.3158228E-1
7.528905E-1
5.0506115E-1
4.6784282E-1
2.2566578E-1
8.879466E-1
3.0006287E-1
4.9269846E-1
6.088195E-1
7.8966516E-1
2.8747258E-1
5.4314345E-1
4.730388E-1
2.0477977E-1
2.8369805E-1
1.9614524E-1
2.3480555E-1
3.019852E-2
3.0835205E-1
6.578286E-1
3.750884E-1
6.9900924E-1
8.625586E-1
4.6114576E-1
4.78897E-1
2.9821545E-1
5.560816E-1
7.9089236E-1
9.165658E-1
9.2470956E-1
6.936872E-1
4.4354555E-1
6.439125E-1
5.3966768E-2
6.742278E-1
1.6969733E-1
8.496407E-1
2.591869E-1
4.9930215E-2
9.507485E-2
3.588093E-1
1.1125397E-1
3.5902396E-1
5.120214E-1
1.6761304E-1
5.5856806E-1
7.486628E-1
7.612594E-1
2.6139992E-1
5.597552E-1
3.6633104E-1
9.532069E-1
1.7099872E-1
9.4046116E-1
4.1759364E-2
1.6293226E-1
8.0609E-1
5.4019725E-1
4.723479E-1
1.8681903E-1
1.22059375E-1
4.9965233E-1
1.4470255E-1
5.65949E-1
7.661524E-1
4.957156E-1
3.4901702E-1
7.6926744E-1
9.618387E-1
3.4087467E-1
6.2813304E-2
1.6831069E-1
7.356821E-1
9.612991E-1
2.3877059E-1
8.299405E-1
2.9895833E-1
6.0094666E-1
7.776043E-2
6.356577E-1
6.633239E-2
3.3280882E-1
1.6114902E-1
3.1704876E-1
4.476614E-1
5.605263E-1
3.2924864E-1
4.5303438E-2
1.7708984E-1
2.09399E-1
8.867079E-2
1.5952773E-1
8.51086E-1
2.4140535E-1
7.3716915E-1
2.1860872E-1
2.6451758E-1
4.9810725E-1
5.2939045E-1
3.8105488E-1
2.1185245E-2
3.5954252E-1
6.462788E-1
2.0556132E-1
1.2721427E-1
5.6811154E-1
9.110332E-1
9.4243854E-1
9.724583E-1
8.7827677E-1
2.0914885E-1
2.7858865E-1
2.0510478E-1
7.063905E-1
9.5156485E-1
6.455742E-1
7.047121E-1
5.1731324E-1
1.6650984E-1
1.3198397E-1
6.8352973E-1
7.023611E-1
6.3172287E-1
2.6224837E-1
7.6098484E-1
8.3715004E-1
3.9508075E-1
8.019991E-1
4.6048203E-1
2.5118175E-1
8.109543E-2
3.9328417E-1
1.6274624E-1
4.906381E-1
5.759239E-1
2.0361263E-1
4.5848498E-1
8.3530277E-1
9.7632587E-1
7.135403E-1
8.2633924E-1
6.46121E-1
5.2814806E-1
5.564592E-1
5.75517E-1
1.9115694E-1
3.64532E-1
4.036774E-1
6.2346506E-1
1.5974131E-1
5.6192386E-1
8.477769E-1
2.4718751E-1
8.8058805E-1
4.530527E-1
4.963476E-1
6.5232605E-1
1.7833598E-1
2.3871224E-1
6.412476E-1
1.9441392E-1
2.6832017E-1
6.6574997E-1
3.0615094E-1
4.6025792E-1
4.655672E-1
6.7656946E-1
4.8561275E-1
5.213729E-1
9.364121E-1
3.848552E-1
9.4449776E-1
1.2139707E-1
2.7475277E-1
6.459029E-1
9.8043466E-1
8.904511E-1
8.4400785E-1
3.9172512E-1
2.2190458E-1
5.642267E-2
3.3122396E-1
2.3423599E-1
4.3025665E-2
1.7046806E-1
6.8846226E-2
1.09410755E-1
6.5652287E-1
7.6539296E-1
6.723131E-1
5.128628E-1
3.1037554E-1
2.1296535E-1
7.4537146E-1
7.510789E-1
8.636019E-1
2.4699546E-1
6.465805E-1
6.484316E-1
8.6454225E-1
8.9401555E-1
3.3711817E-2
4.0917376E-1
3.9311733E-2
2.4088353E-3
2.2324859E-1
6.822743E-1
5.9237677E-1
2.4128638E-1
1.3717183E-1
5.635824E-1
6.8504566E-1
4.6287322E-1
6.065229E-1
2.8274E-1
5.2018607E-1
4.9793833E-1
8.834249E-1
2.258388E-1
7.6100975E-1
3.429664E-1
5.332206E-1
6.5656924E-1
4.4617248E-1
6.1842933E-2
6.9486696E-1
9.227436E-1
7.215562E-1
3.0745562E-2
1.2696937E-1
5.792471E-2
9.93431E-2
9.0977985E-1
7.599454E-1
1.5282473E-1
3.3069316E-1
3.0528334E-1
8.323174E-1
4.631845E-1
4.4558308E-1
9.722607E-2
7.439484E-1
8.4256506E-1
9.046127E-1
5.3177714E-2
6.262698E-1
6.7941624E-1
7.922065E-1
7.6959276E-1
7.9954886E-1
9.5077306E-1
2.0472494E-1
3.2249922E-1
7.9087114E-1
8.946794E-1
2.5010815E-1
2.2889815E-1
9.932377E-1
7.242169E-1
3.215443E-1
2.8654984E-1
5.9152865E-1
8.0874354E-1
9.405842E-1
7.530582E-1
2.2669473E-1
9.2243975E-1
9.006866E-2
5.7347037E-2
9.7478056E-1
9.751322E-1
4.587083E-1
5.722273E-1
7.78449E-1
3.5725573E-1
3.3948347E-1
1.2812817E-1
2.4716859E-1
2.5116998E-1
5.712002E-1
1.1559898E-1
4.4787082E-1
6.027306E-1
1.641147E-2
5.013187E-1
9.024636E-1
8.1736815E-1
1.21036805E-1
5.617591E-3
9.4034326E-1
6.588811E-1
5.776325E-1
8.2815605E-1
2.6746228E-1
2.4419108E-1
8.780475E-1
3.6238793E-3
2.9398465E-1
2.4297942E-1
2.7174664E-1
3.702972E-1
9.3519115E-1
2.4683644E-1
2.5311747E-1
3.9625394E-1
4.305219E-1
7.6600313E-1
7.977174E-1
2.1392465E-2
5.553164E-1
3.6019543E-1
9.195648E-1
5.850831E-1
5.3983027E-1
7.4229395E-1
6.0690856E-1
2.4211791E-1
5.1488545E-2
5.0722706E-1
1.5335046E-1
4.6825603E-1
7.9462385E-1
1.5840863E-1
8.2481414E-1
1.7153105E-1
7.169106E-1
8.734314E-2
3.960203E-2
3.5479176E-1
8.381231E-1
6.8154633E-1
7.5149655E-1
6.541358E-2
6.658351E-1
7.5654405E-1
1.5140009E-1
6.123913E-1
4.0551342E-2
8.2219666E-1
7.36726E-1
1.6507213E-1
4.4198996E-1
4.273368E-1
9.0468484E-1
5.05659E-1
1.5311256E-1
8.2886726E-1
8.680825E-1
7.553668E-1
1.0770635E-1
1.5414798E-1
3.845883E-1
9.8982596E-1
9.937566E-2
8.747226E-1
1.6206604E-1
3.864604E-1
4.154417E-1
8.822346E-3
3.7319165E-1
6.897379E-2
6.564789E-2
5.3451115E-1
9.181371E-2
5.141754E-1
1.581911E-1
9.971124E-1
8.253772E-1
2.2866464E-1
9.5568454E-1
1.4280385E-1
8.505584E-1
4.7349957E-1
1.0560246E-1
8.234651E-1
7.6252913E-1
9.902745E-1
6.6308933E-1
3.769917E-1
4.6285033E-1
7.46575E-1
5.493857E-1
3.2815972E-1
2.6419362E-1
4.2831102E-1
5.8012086E-1
2.4792081E-1
2.813174E-1
4.3022314E-1
2.3880601E-1
2.2851025E-1
6.817032E-2
4.3621945E-1
2.2775054E-1
9.756733E-2
7.8325486E-1
6.142846E-1
1.2685712E-1
5.197533E-1
7.267113E-1
6.124802E-1
9.6762526E-1
5.035163E-1
6.422759E-1
4.717203E-1
3.6467588E-1
3.4010878E-1
8.2386196E-1
4.2565826E-1
9.982058E-2
4.96778E-1
5.826194E-1
9.1705525E-1
8.748729E-1
2.7128345E-1
8.56013E-1
8.674449E-1
8.67041E-1
5.845573E-1
6.507253E-1
9.681202E-2
1.4122322E-1
5.6995493E-1
1.7634994E-1
3.957005E-1
7.684407E-1
9.8707193E-1
9.109328E-1
7.8036654E-1
9.213539E-1
2.9563364E-1
1.8658362E-2
6.5553285E-2
3.319817E-2
2.7292615E-1
9.62972E-1
1.2005006E-1
1.4205098E-1
7.441397E-1
5.903828E-1
1.5798092E-1
5.614552E-1
9.3498427E-1
3.2956398E-1
6.556437E-1
5.8509964E-1
7.51665E-1
6.210429E-1
5.763768E-1
7.834484E-1
2.469171E-1
1.8370841E-1
9.483603E-1
9.994479E-1
6.7848146E-1
1.00453414E-1
3.96482E-1
4.9350467E-1
2.2700493E-1
1.5322787E-1
9.882634E-1
7.189866E-1
4.15335E-1
6.1278944E-3
8.9267606E-1
5.219471E-1
8.477698E-1
3.8344142E-1
9.495354E-1
9.9081695E-2
5.4332024E-1
5.977143E-1
2.3634061E-1
1.7666505E-1
8.425858E-1
3.058515E-1
9.493172E-1
1.0065464E-1
1.3541237E-1
6.691936E-1
8.543234E-2
9.1443825E-1
4.8316234E-1
1.9367133E-1
3.426558E-2
8.686439E-1
6.1856085E-1
3.70269E-1
8.7813504E-2
8.2760704E-1
9.354054E-1
2.2067332E-1
3.621699E-2
2.3730195E-1
7.225272E-2
7.039386E-1
5.314143E-1
5.642593E-1
6.656326E-1
5.306542E-2
9.3446624E-1
3.844225E-1
5.142013E-1
8.0623794E-1
1.1585817E-1
5.977058E-1
8.2842845E-1
1.1167821E-2
8.069118E-1
1.1007995E-1
8.273763E-1
9.864261E-1
8.010082E-1
3.7681717E-1
1.632103E-1
2.8473043E-1
7.5037193E-1
4.747656E-1
9.503246E-1
1.3499373E-1
3.0163592E-1
8.815807E-1
9.459547E-1
9.2309487E-1
3.6783436E-1
3.4594122E-1
7.0492285E-1
6.205329E-1
1.9799577E-2
8.466105E-1
7.5659215E-1
5.895167E-1
6.552829E-1
7.2978824E-1
5.7723504E-1
9.357874E-1
6.7822105E-1
8.0418095E-2
8.057181E-1
4.811175E-1
9.6699804E-1
8.384382E-1
2.5171572E-1
4.1639718E-1
9.6072453E-1
4.3534344E-1
2.0671755E-2
3.5099894E-1
7.399735E-1
8.2491845E-1
7.56366E-1
3.7552018E-3
7.404434E-1
7.871836E-1
9.9732995E-1
1.5023324E-1
1.5415281E-1
4.2289272E-1
8.0978446E-2
1.4893466E-1
4.1496712E-1
2.281339E-1
3.1175867E-1
2.5715637E-1
6.6941977E-3
5.3181165E-1
5.058622E-1
1.4481632E-1
1.7947303E-1
3.0156475E-1
7.6963717E-1
7.1578366E-1
8.814098E-1
8.667522E-2
3.742832E-1
7.0100826E-1
2.2608298E-1
2.4359697E-1
8.7083894E-1
4.1308686E-1
5.304017E-1
5.5035055E-1
3.757976E-1
8.017002E-1
6.7800236E-1
4.0171874E-1
5.125412E-1
6.61991E-1
9.568186E-1
7.107239E-1
1.415273E-3
2.6635808E-1
2.0038156E-1
9.6605086E-1
9.3222976E-1
8.675895E-2
3.147868E-1
9.5714587E-1
6.358907E-1
1.8885759E-1
8.5510063E-1
1.7312264E-1
6.8164125E-2
4.0827858E-1
1.1942666E-2
3.393368E-1
3.3460075E-1
1.3805468E-1
8.965482E-1
8.6952764E-1
6.85953E-1
8.6212754E-1
1.07526295E-1
9.419863E-1
6.933969E-2
5.006119E-1
2.3824455E-1
8.923892E-1
5.4251444E-1
6.100421E-1
2.2070324E-1
8.530672E-1
6.152262E-1
3.0010295E-1
8.757888E-1
3.134507E-1
3.5854945E-1
6.1383384E-1
4.5548773E-1
7.8392714E-1
1.7790806E-1
1.824098E-1
5.1846504E-1
1.3461554E-1
5.111026E-1
1.6195054E-1
2.1998435E-1
5.205242E-1
8.4423894E-1
5.6271833E-1
9.8798E-1
7.1876425E-1
9.9428374E-1
3.23278E-1
5.1144266E-1
1.1169204E-1
7.136318E-1
9.823426E-1
3.6728352E-2
6.492131E-1
3.934205E-1
2.7069515E-1
8.1128424E-1
6.749129E-1
2.2591671E-1
4.1676125E-1
5.3736675E-1
9.087977E-1
2.9768791E-2
3.4555018E-1
8.9904815E-1
5.3126943E-1
8.937716E-1
8.11569E-1
3.218854E-1
2.0860328E-1
8.2885605E-1
1.5358214E-1
8.824516E-1
9.418641E-2
1.7079005E-2
6.890472E-2
1.5746552E-1
7.929149E-1
1.7001693E-1
5.926573E-2
2.655746E-1
7.8809863E-1
2.5668097E-1
3.4936216E-1
5.841138E-1
5.1807725E-1
3.7999276E-2
2.662233E-1
4.1494712E-1
4.7645733E-1
7.398695E-1
9.385649E-1
9.862595E-1
8.065937E-1
2.8943975E-2
8.714869E-1
8.087207E-1
6.305458E-2
4.456479E-2
8.2090664E-1
3.0764145E-1
7.721835E-1
1.6989194E-1
4.3794063E-1
3.5496652E-1
2.0243584E-1
1.7855639E-2
2.6091895E-1
1.643484E-1
1.6198638E-1
4.6858743E-1
5.2766967E-1
1.1103334E-2
2.7656494E-2
3.424559E-2
1.9131029E-1
5.9359246E-1
8.901415E-1
8.062641E-1
2.7043346E-1
4.6327657E-1
2.4152493E-1
9.589801E-1
5.7256848E-2
5.937282E-1
3.7155494E-1
6.6954917E-1
4.4259435E-1
1.8005568E-1
4.9728847E-1
1.9382818E-1
8.947002E-1
2.5479904E-1
7.501745E-1
3.7639874E-1
6.0782546E-1
3.696706E-2
8.350572E-2
9.392709E-1
4.8766518E-1
7.494932E-1
6.637971E-1
4.7030127E-1
7.713888E-1
2.4566434E-2
4.5437655E-1
7.588092E-3
7.138902E-1
8.961834E-1
7.4974334E-1
2.5166973E-1
9.5585454E-1
9.8818064E-1
7.996477E-1
8.784229E-1
5.831046E-1
6.942753E-1
1.5829542E-1
6.2155074E-1
5.6210023E-1
3.9854932E-1
3.0505604E-1
2.5281012E-1
9.4735414E-2
4.584403E-1
3.723547E-1
5.4495496E-1
2.272846E-1
1.03110746E-1
8.92318E-1
6.931674E-1
6.979318E-1
9.531735E-1
3.5119742E-1
3.1990188E-1
8.1141526E-1
7.1137816E-1
3.5692415E-1
9.943471E-1
1.1698737E-1
9.1121554E-1
3.0241016E-2
2.2016864E-1
3.9852983E-1
9.8179793E-1
6.8118906E-1
7.378045E-1
1.2988499E-1
3.622442E-1
2.4820268E-1
3.2753697E-1
2.9668605E-1
1.334244E-1
4.3952116E-1
6.861554E-1
1.4502358E-1
1.10461555E-1
9.699024E-1
7.2649026E-1
7.8502506E-1
8.101864E-1
8.7411624E-1
2.7339953E-1
2.3224497E-1
1.4936772E-1
6.775825E-1
1.3904538E-2
5.258461E-1
2.0480458E-1
5.7147217E-1
7.486289E-1
4.3880686E-2
7.9031193E-1
7.604467E-1
2.5140277E-1
3.771248E-1
5.5966474E-2
4.9806648E-1
6.242448E-1
1.6357978E-1
2.1368673E-1
5.8804524E-1
8.440749E-1
5.747284E-1
1.8730296E-1
9.99073E-2
7.3421884E-1
9.155396E-1
5.568484E-1
8.47044E-1
6.9203365E-1
4.0818134E-1
9.261215E-1
4.871103E-2
3.1875882E-1
6.150477E-1
4.228154E-1
8.3323136E-2
7.9072005E-1
5.480828E-1
2.7951708E-1
7.542486E-1
6.5625185E-1
3.2631755E-1
5.433809E-1
1.8284714E-1
7.1779245E-1
4.7041607E-1
4.558951E-2
9.8315597E-1
4.1059685E-1
4.2808825E-1
8.1734484E-1
1.2766615E-1
4.30542E-1
7.929304E-1
9.661771E-1
5.065336E-1
9.0921754E-1
6.780016E-1
8.573868E-3
4.5926595E-1
5.323328E-2
9.3438876E-1
5.805425E-2
2.98167E-1
4.912466E-1
5.3857255E-1
8.7464005E-1
1.1665411E-1
9.1883516E-1
4.8316312E-1
9.481685E-1
6.0643274E-1
7.409957E-2
7.4846095E-1
7.847573E-1
3.0598253E-1
4.233089E-1
6.6947415E-2
6.920109E-2
2.855047E-1
7.9492605E-1
6.974882E-1
3.5292357E-1
7.2234815E-1
4.3934003E-1
4.979695E-1
8.336892E-1
9.7772545E-1
6.7954934E-1
4.9378544E-2
6.358665E-1
2.7293104E-1
9.310567E-1
5.9942067E-1
3.8905475E-2
5.9607965E-1
7.068181E-1
9.6752274E-1
1.2901625E-1
3.022533E-1
1.7905161E-1
6.7102265E-1
7.3848367E-1
8.964802E-2
3.109306E-2
7.9249305E-1
4.186108E-1
8.802843E-1
5.940999E-1
4.999842E-1
2.5238934E-1
7.361593E-1
2.7182397E-1
5.938622E-1
1.2728518E-1
7.8848E-1
8.625516E-1
3.0545548E-1
1.3766389E-1
2.0338537E-1
4.466872E-1
7.5333154E-1
2.736974E-2
3.1052315E-1
4.7174186E-1
2.8727788E-1
4.5118698E-1
1.6857176E-1
1.4690097E-1
1.1207446E-1
1.5266806E-1
8.7255514E-1
5.140957E-1
1.06636025E-1
8.942625E-1
6.4016655E-2
3.436613E-1
7.5792783E-1
1.4956236E-1
7.963381E-1
8.653689E-1
4.6034592E-1
6.750267E-1
9.494188E-1
4.5646182E-1
6.9495577E-1
3.817936E-1
8.4056383E-1
7.144639E-1
1.8065129E-1
2.1598592E-2
8.991748E-1
7.833745E-1
6.507953E-1
2.7103627E-1
3.94186E-1
6.1710036E-1
4.3519107E-1
6.175585E-1
8.780525E-1
4.9818707E-1
3.5519868E-1
1.6443235E-1
4.580688E-1
4.8620847E-1
7.5036937E-1
1.6060749E-1
1.7805985E-1
6.329956E-1
4.0336758E-2
3.279531E-1
8.9849514E-1
3.8103452E-1
3.2659253E-4
8.631534E-1
3.4615675E-1
7.6795894E-1
1.5927213E-1
4.0222248E-1
5.7969004E-1
1.19588174E-1
1.861194E-1
7.660192E-1
5.040568E-1
2.6061052E-1
2.793872E-1
5.193706E-1
6.532048E-1
6.968403E-1
7.762949E-1
6.5173484E-2
9.040369E-1
8.479692E-1
1.9172469E-1
1.3645618E-1
2.2189751E-1
7.872662E-1
4.177876E-1
3.77448E-1
7.1134657E-1
9.240589E-1
4.4113156E-1
4.1018447E-1
4.463342E-1
8.976714E-2
6.1332613E-1
8.7551486E-1
4.5256573E-1
3.3355698E-1
3.9374888E-1
8.58332E-1
6.605496E-1
5.885536E-1
6.008877E-1
3.9161262E-1
6.8886304E-1
6.859316E-1
8.548792E-1
3.5753196E-1
3.1207752E-1
9.912296E-2
4.76139E-1
3.8361964E-1
5.984398E-1
4.525563E-1
8.7892634E-1
3.3757154E-2
7.6932155E-2
1.4961961E-2
4.8684984E-1
9.5604116E-1
2.2794245E-1
1.2196269E-1
3.5636717E-1
4.0591797E-1
7.227598E-1
5.8624625E-1
8.479312E-2
5.4609346E-1
3.3524486E-1
9.9530417E-1
5.3999996E-1
6.4398724E-1
4.506817E-2
6.70085E-2
6.346353E-1
1.5404615E-1
7.1532196E-1
1.2165044E-1
1.9721194E-1
5.2137667E-1
4.259026E-1
9.868616E-1
1.5709484E-2
4.627402E-1
7.806375E-1
2.0595254E-2
7.432492E-1
8.4376276E-1
1.8157794E-1
7.0247906E-1
9.097301E-1
6.9712126E-1
3.101926E-1
3.3577606E-1
6.273361E-1
7.294571E-1
5.8521605E-1
3.1381744E-1
1.7738304E-1
8.741426E-1
7.607693E-1
8.9704496E-1
2.9640892E-1
5.49589E-1
1.4283095E-2
5.433712E-1
9.854669E-1
5.0771517E-1
1.4212634E-1
8.164925E-1
1.8503587E-1
4.724419E-1
1.1694725E-2
1.3704066E-1
2.787727E-1
5.6577235E-1
9.496339E-1
3.7505132E-1
1.7704442E-1
3.6718407E-1
2.639738E-1
2.6752368E-1
7.3668224E-1
2.5434367E-2
7.5405073E-1
3.063539E-1
5.001793E-1
4.369715E-1
8.4590435E-1
5.596519E-1
7.127657E-1
6.7163485E-1
2.971784E-1
5.93464E-1
6.763707E-1
3.2077566E-1
1.10828236E-1
8.9087635E-1
2.7276912E-1
2.9764828E-1
5.344178E-1
1.475128E-1
6.6238976E-1
2.163867E-1
4.7294432E-1
7.197191E-1
7.4305826E-1
6.577981E-1
2.2280845E-1
4.5678192E-1
6.096336E-1
4.6052027E-1
6.1281127E-1
8.7667865E-1
3.039611E-1
6.4541537E-1
8.678546E-1
1.8056527E-1
7.066831E-1
2.7034506E-1
2.8262725E-1
9.791655E-1
6.902422E-1
7.9219006E-2
8.9763194E-1
9.763846E-1
1.4623432E-1
1.3717502E-1
7.443239E-2
9.8979056E-1
8.4037435E-1
4.2947423E-1
6.738331E-1
7.731728E-1
8.070856E-1
2.243932E-2
6.113299E-1
4.3346503E-1
4.271383E-1
2.48414E-1
9.475323E-1
3.2929298E-1
1.9244437E-1
1.6913965E-1
6.761491E-1
3.608179E-2
5.123938E-1
2.2660418E-1
8.321432E-1
3.2605678E-2
1.7134953E-1
9.804937E-1
7.045195E-1
8.2743734E-2
3.9540672E-1
2.3647943E-1
5.672851E-1
1.4644199E-2
4.205713E-1
5.221494E-1
1.6078234E-1
4.3102124E-1
1.4193128E-1
7.2744435E-1
3.6443153E-1
4.4558924E-1
3.5793167E-1
5.8762455E-1
9.196035E-1
9.821394E-1
2.0542829E-1
9.942783E-1
9.1876847E-1
1.3144426E-1
7.391215E-1
5.2304164E-2
7.546121E-1
3.8483256E-1
3.6890054E-1
3.7303793E-1
5.116818E-1
9.743496E-1
6.124948E-1
5.4688066E-1
6.151116E-1
4.275158E-1
9.776676E-1
4.9573418E-1
6.566238E-1
4.6622625E-1
1.6210921E-1
2.1149848E-1
6.330709E-1
8.282865E-1
8.9540917E-1
7.4863774E-1
3.5129496E-1
3.4587306E-1
6.627675E-1
2.1837206E-1
8.8160217E-1
4.639138E-1
9.20979E-1
9.542321E-1
2.0743052E-2
7.7853936E-1
9.5091987E-1
2.6619405E-1
1.2829253E-1
6.7592263E-1
8.369679E-2
5.868018E-1
6.245715E-1
1.3672164E-2
7.794669E-1
6.874174E-2
2.193933E-1
5.0149876E-1
8.588033E-1
9.542105E-2
3.0747384E-1
9.849012E-1
6.075854E-1
8.485515E-2
5.9290534E-1
3.5423636E-1
5.2618575E-1
7.8641057E-1
1.267348E-1
5.47365E-1
8.0747104E-1
3.1574383E-1
7.6290697E-1
7.061922E-2
6.0385555E-1
7.7491605E-1
3.0591178E-1
8.3058476E-1
2.1429987E-1
6.216268E-1
8.3395797E-1
5.500069E-1
3.5359323E-1
9.3505085E-2
1.0652526E-1
2.7053332E-1
4.9337944E-1
9.234517E-1
1.23096205E-1
2.7663654E-1
4.36031E-2
1.4823157E-1
6.2178105E-1
2.381533E-1
4.6761248E-1
9.132306E-1
8.234997E-1
5.055048E-1
9.925347E-2
5.8840644E-1
7.653905E-2
1.4100699E-1
2.1199173E-1
4.860234E-1
7.655975E-1
1.2732726E-1
3.7669325E-1
4.428961E-1
3.4156236E-1
7.620888E-1
2.618784E-1
2.0190336E-1
2.4893257E-1
9.9262595E-1
8.896913E-1
6.152232E-1
9.509582E-1
3.7961847E-1
2.663392E-3
5.6484705E-1
7.2169775E-1
6.4110965E-1
2.5580553E-2
9.1767025E-1
1.19787805E-1
4.265694E-2
5.257466E-1
7.2592837E-1
9.140651E-1
9.1389143E-1
3.7050724E-1
5.3874373E-1
8.2838315E-1
3.521869E-1
5.146378E-1
1.343838E-1
9.563465E-1
8.1643254E-1
6.844697E-1
8.2366735E-1
5.9764725E-1
2.7065617E-1
6.156683E-1
5.195763E-1
2.5535017E-1
2.3185717E-1
3.6338094E-1
4.5504752E-1
5.841599E-1
1.8370388E-1
1.8724732E-1
1.3678455E-1
1.892469E-1
4.435103E-3
9.933027E-1
9.2534775E-1
5.1182616E-1
6.643638E-2
5.653458E-1
2.965037E-1
6.5132725E-1
4.8076305E-1
6.370861E-1
8.690925E-1
7.161266E-1
6.7455E-1
4.7160876E-1
5.977413E-1
4.6138015E-1
2.9505014E-1
9.934855E-1
8.47006E-1
6.278821E-1
3.1340435E-1
7.916966E-1
4.342037E-1
8.411022E-2
7.61704E-1
4.802901E-1
4.081938E-1
2.8138313E-1
3.8858297E-1
3.6582974E-1
5.5817515E-1
6.427564E-1
5.9918624E-1
1.5822107E-2
6.9951797E-1
1.9549833E-1
4.5321584E-1
7.020326E-1
6.1676925E-1
1.5522343E-1
8.923847E-2
4.879956E-1
2.965463E-1
2.0284332E-1
8.428575E-1
6.30067E-1
4.422678E-3
8.552263E-1
1.6839422E-1
9.3503153E-1
1.16006054E-1
5.753606E-1
3.297192E-1
8.4077555E-1
7.3064137E-1
7.266801E-1
1.6451433E-2
2.097026E-1
1.9417326E-1
1.7862813E-1
5.4428554E-1
5.230596E-1
6.1990637E-1
3.3280358E-1
5.3759354E-1
5.150852E-1
3.4430176E-1
3.2462883E-1
6.66873E-1
5.4070866E-1
9.602849E-1
8.0212784E-1
1.2553282E-1
7.3991615E-1
7.204155E-1
8.7205154E-1
2.3889315E-1
6.231105E-1
8.8350296E-1
4.5307645E-1
9.25957E-1
5.3222406E-1
2.9399827E-1
3.5139114E-1
1.5920353E-1
8.583281E-1
6.188213E-1
9.241448E-1
8.018156E-1
1.7215082E-3
6.6113186E-1
2.186373E-1
5.829736E-1
2.0005074E-1
4.1714332E-1
9.8936754E-1
3.5575032E-1
7.7606136E-1
8.9946896E-1
9.358885E-1
1.1677761E-1
6.05553E-1
3.3132926E-1
5.128535E-1
4.491151E-1
5.055331E-1
6.5841353E-3
4.2259032E-1
2.413095E-2
5.814201E-1
9.253861E-1
8.7926394E-1
4.2751816E-1
2.5393927E-1
7.8379774E-1
9.941057E-1
1.0816422E-1
6.819855E-1
2.0003365E-1
5.1298636E-1
9.372011E-2
5.776574E-1
7.17632E-1
3.099853E-1
9.3963194E-1
2.4718437E-1
9.500697E-2
9.33915E-1
8.632648E-1
6.790002E-1
1.1552969E-1
9.276993E-1
1.7151499E-1
3.9985096E-1
6.11404E-1
2.6788618E-2
7.699467E-2
1.5944506E-1
5.7808846E-1
8.7364817E-1
3.0330294E-1
8.796938E-1
1.5974085E-1
1.309655E-1
2.4810931E-1
3.8886097E-1
1.9190052E-1
3.0938885E-1
2.0487744E-1
6.602034E-1
9.0067136E-1
6.2744856E-1
8.257529E-1
2.1853682E-1
3.2200035E-1
2.9847428E-1
8.569937E-1
9.7323304E-1
9.467046E-1
3.2802564E-1
4.35366E-3
6.617915E-1
7.987904E-1
9.2867094E-1
4.4478953E-1
7.2425324E-1
6.715631E-2
7.5781035E-1
6.69222E-1
9.1076267E-1
6.041038E-1
1.632179E-1
5.1671225E-1
4.6312338E-1
4.3645987E-1
1.00340806E-1
2.83566E-1
2.2823235E-1
6.0112286E-1
3.160843E-1
7.8700924E-1
9.717453E-1
1.7011105E-1
3.4096673E-2
1.8984492E-1
1.8774007E-1
4.490456E-2
6.878211E-1
3.067623E-2
2.4549884E-1
1.2400386E-1
6.465613E-1
1.9893795E-1
5.9044313E-1
1.3826421E-1
2.9576957E-1
6.464039E-1
4.096691E-2
4.7604004E-1
9.280828E-1
9.037736E-1
9.5783716E-1
5.2459234E-1
9.4528335E-1
8.5424405E-1
4.2242926E-1
6.640507E-1
3.299717E-1
9.900729E-2
1.8579854E-2
3.1562132E-1
3.0806604E-1
6.575164E-3
4.476265E-1
2.1447651E-1
5.6102437E-1
7.246624E-2
2.5471655E-1
9.868428E-2
1.8243347E-1
2.3583513E-1
2.7304893E-2
8.1974983E-1
8.7961817E-1
4.310296E-1
7.1295816E-1
2.321989E-1
6.711416E-1
2.2856794E-1
9.6796197E-1
4.6194E-2
1.2863453E-1
9.55995E-1
7.570081E-1
2.38964E-1
5.522846E-1
3.7801647E-1
9.644198E-1
9.190816E-1
9.872337E-1
3.6304498E-3
1.4603009E-2
3.1256393E-1
3.5968766E-1
4.8744062E-1
1.3381527E-1
5.1700675E-1
7.6247245E-2
9.3869746E-1
2.5681052E-1
9.907357E-1
9.006752E-1
5.5232618E-2
8.483818E-2
7.846158E-1
4.959318E-1
6.722194E-1
6.703835E-2
9.353809E-1
5.165244E-1
3.4613654E-1
1.1126769E-1
4.0541682E-1
5.6901824E-1
2.9750463E-1
6.3180864E-1
8.345235E-3
4.5736277E-1
5.015235E-2
6.552164E-1
2.65573E-1
3.9203718E-1
7.207265E-1
2.6152524E-1
3.7002015E-1
3.173321E-1
9.6005225E-1
3.0826187E-1
4.576535E-1
6.2377596E-1
1.3295473E-1
9.624549E-1
8.915581E-1
8.8907003E-1
2.9668283E-1
3.544614E-1
9.363926E-1
4.710623E-1
3.4782952E-1
4.9239284E-1
5.212271E-1
2.6544827E-1
1.5218467E-1
4.395286E-1
4.2184585E-1
1.210237E-1
8.0273765E-1
3.185061E-1
2.5069898E-1
1.4852269E-1
2.8579333E-1
4.2876306E-1
2.46866E-1
5.1984835E-1
4.1972935E-1
6.484873E-2
5.583758E-1
6.913211E-1
3.43075E-1
7.4973136E-1
7.701044E-1
1.00951426E-1
6.3477784E-1
2.451295E-2
6.1122304E-1
6.65331E-1
1.5196772E-1
3.6770564E-1
9.1010255E-1
9.4267905E-2
8.9024574E-1
3.13588E-1
8.645876E-1
1.9797124E-1
8.8983744E-1
2.854474E-1
7.438552E-1
3.764987E-1
9.774253E-1
6.5210706E-1
9.3708736E-1
6.273003E-1
6.525879E-1
6.8975353E-1
1.8277878E-1
1.7827551E-1
6.531419E-1
7.023916E-1
2.381918E-1
4.0689552E-1
6.543994E-1
7.088464E-1
2.0432049E-1
7.5701267E-1
6.48178E-1
1.408707E-1
3.3071724E-1
1.254883E-1
8.995938E-1
5.475075E-1
4.0023755E-2
9.14269E-1
7.6508826E-1
5.489503E-1
2.8223726E-1
8.157534E-1
8.7985533E-1
5.7609737E-1
1.8958326E-1
9.508353E-1
6.760675E-1
4.321911E-1
8.857646E-1
3.4421083E-1
4.720942E-1
7.3341376E-1
9.1472334E-1
5.273791E-1
4.5911667E-1
4.5958737E-1
8.443827E-1
1.5328857E-1
6.796478E-1
7.7617955E-1
5.8818424E-1
3.6243036E-1
7.7983886E-1
9.603197E-1
4.0518555E-1
2.901564E-1
7.3701084E-1
8.2117563E-1
7.3173505E-1
3.5882354E-1
7.535381E-1
1.12482324E-1
3.0140115E-2
8.4819025E-1
4.953905E-1
8.1675035E-1
9.9515045E-1
7.843886E-1
9.735054E-1
9.688327E-2
6.7629343E-1
5.642097E-2
6.84368E-1
7.1370554E-1
2.936529E-2
6.519481E-1
5.8403317E-2
6.8880475E-1
7.467654E-1
6.6257036E-1
2.3351559E-1
6.29894E-1
9.807129E-1
8.72126E-1
4.710747E-1
2.1210432E-1
5.5001944E-1
4.5124248E-1
4.4700778E-1
2.1949287E-1
1.8196857E-1
9.454995E-1
3.614901E-1
8.439687E-1
9.233924E-1
1.6351925E-2
1.787171E-1
2.2170736E-1
6.781392E-1
1.1396275E-2
3.9431915E-1
3.945768E-2
9.868029E-1
2.2145921E-1
6.620446E-1
3.006509E-1
1.637372E-1
4.4447264E-1
3.6880103E-1
4.4620717E-1
7.960146E-1
4.366648E-1
5.6536596E-2
9.1406614E-1
1.9803321E-1
7.9495066E-1
3.260165E-1
2.7769363E-1
8.892387E-1
3.351319E-2
9.5742446E-1
3.5144693E-1
7.82684E-1
1.8372099E-1
3.7390405E-1
9.122504E-1
1.4177625E-2
6.4689803E-1
7.927583E-1
4.2435557E-1
2.2623073E-1
1.7554909E-2
3.2823816E-1
5.873572E-1
4.3859062E-1
7.361199E-1
7.4401075E-1
6.023063E-1
6.9110304E-1
9.8647827E-1
5.4869972E-2
4.568088E-1
1.9924502E-1
2.5729027E-1
1.7344545E-1
9.014654E-1
5.4934535E-2
2.245239E-1
2.4031916E-1
1.510038E-1
9.0964574E-1
2.6688942E-1
6.755304E-2
1.4158088E-1
6.362E-1
6.856945E-1
7.2276145E-1
3.9358374E-1
5.795775E-1
8.910275E-1
3.857905E-1
2.3066182E-1
6.8535215E-1
3.8026828E-1
8.1632745E-1
8.3570707E-1
1.6193922E-1
6.484637E-1
2.657522E-1
7.317457E-1
3.372806E-1
6.8149E-1
5.056327E-1
4.307462E-1
1.9630098E-1
7.662871E-1
9.700897E-1
8.1241935E-1
3.6488894E-1
5.524104E-1
6.0509056E-1
6.416424E-1
6.0215294E-1
9.1350204E-1
8.104286E-1
8.179068E-1
6.108005E-1
7.338396E-1
9.367468E-1
7.336619E-1
3.4894022E-1
2.3012504E-1
2.6002884E-2
9.264611E-3
2.4562131E-1
5.958302E-1
7.4349266E-1
8.2115394E-1
7.5271726E-1
8.414401E-1
8.748275E-2
5.0126624E-1
2.8378782E-1
7.917888E-1
8.864753E-1
3.6733103E-1
9.0377736E-1
8.530638E-1
8.139183E-1
5.5227077E-1
1.4188708E-1
3.6912164E-1
3.815053E-1
3.8420215E-1
5.4470267E-2
6.2076783E-1
8.679833E-1
7.0884275E-1
7.023066E-1
6.208767E-2
5.299874E-1
2.6096433E-1
7.121184E-1
7.5724024E-1
6.7559615E-2
4.7865114E-1
5.3374857E-1
9.932963E-1
8.8977605E-1
4.2542076E-1
1.0034017E-1
9.635929E-2
4.858304E-1
5.8426194E-2
7.0025444E-1
4.7564092E-1
2.7411553E-1
1.974762E-1
5.738832E-1
5.842225E-1
1.0107469E-2
4.2779678E-1
6.118192E-1
9.058142E-1
8.1852037E-1
2.7271378E-1
4.1934824E-1
7.5149316E-1
9.2263836E-1
4.7985908E-1
9.980693E-1
4.9530175E-1
4.3229736E-2
7.5086915E-1
5.91989E-1
1.7516339E-1
5.290597E-1
4.7867298E-2
1.8165398E-2
6.53667E-1
2.882107E-1
8.542112E-2
2.5366908E-1
8.363714E-1
9.6315366E-1
7.09026E-1
6.625792E-1
2.503698E-1
4.163961E-2
7.1818537E-1
6.997699E-1
7.8065455E-1
9.3880045E-1
2.3041812E-1
1.5920651E-1
6.62195E-1
9.342501E-1
6.1577326E-1
1.5245199E-1
2.4682082E-1
6.122176E-1
6.175846E-1
8.821833E-1
5.7995576E-1
2.5796613E-1
1.6838549E-1
3.3952054E-1
3.6018276E-1
9.517347E-3
8.459133E-1
3.3033234E-1
2.3474695E-1
6.62583E-1
5.977095E-1
2.3923111E-1
3.9142016E-1
5.262421E-1
3.1780702E-1
7.160469E-1
2.3785177E-1
8.645286E-1
1.0533021E-2
8.1977576E-1
9.7370213E-1
5.796724E-1
6.496089E-2
1.4379999E-1
1.1089067E-1
6.570518E-2
5.630813E-1
7.235608E-1
7.389841E-1
9.110295E-1
9.5970935E-1
8.215605E-1
4.842957E-2
5.9621762E-2
3.480268E-1
4.380347E-1
7.003689E-2
9.367314E-1
5.909004E-1
4.0541193E-1
4.090831E-1
3.0215734E-1
9.749568E-1
1.8648858E-1
7.8916824E-1
5.3578955E-1
5.0260466E-1
9.487074E-1
5.541613E-1
5.4545295E-1
9.7651064E-1
8.4292275E-1
2.7710503E-1
7.408947E-2
2.9668874E-1
4.6056324E-1
3.580665E-2
7.9688835E-1
7.891622E-2
1.1586272E-1
1.4459507E-1
3.8944426E-1
3.162419E-1
7.7778095E-1
6.7741007E-1
9.43815E-1
8.607048E-1
4.257941E-1
4.1792014E-1
9.330718E-2
9.7628087E-1
8.9582455E-1
2.0283239E-2
6.031964E-1
5.153432E-1
5.393291E-1
2.3767471E-1
8.512833E-1
9.2959964E-1
7.66866E-1
6.9647056E-1
6.962375E-2
5.5916965E-1
5.0622728E-2
3.058382E-1
3.8932344E-1
5.10091E-1
8.1138915E-1
4.1915727E-1
8.9210683E-1
7.6333575E-2
7.9371107E-1
6.186032E-2
5.3933835E-1
3.803229E-1
2.2752447E-1
9.549342E-1
4.91684E-1
2.6321614E-1
7.3798215E-1
3.655635E-1
4.5334378E-1
6.311578E-1
5.9553283E-1
5.24556E-1
3.1538707E-1
5.236454E-1
3.4425825E-1
7.3169297E-1
9.315891E-1
9.17596E-1
1.7679244E-1
6.7069143E-1
7.3338073E-1
1.4479395E-2
4.123562E-1
7.972512E-1
8.3956057E-1
9.3639314E-1
5.6158817E-1
6.9199646E-1
6.332794E-1
8.507207E-1
5.473971E-2
5.2790296E-1
5.077664E-1
7.057928E-1
5.6269234E-1
4.8543882E-1
8.411771E-1
6.4911574E-1
5.484407E-1
9.712685E-1
8.662247E-1
8.79118E-1
7.662645E-1
2.240191E-1
2.5960448E-1
8.5970515E-1
7.182416E-1
8.726433E-1
5.037712E-1
5.835125E-1
9.85753E-1
8.976342E-1
7.0527214E-1
9.629316E-1
8.252485E-1
1.43891E-1
9.4895065E-1
7.103252E-1
4.65731E-1
8.2298946E-1
8.691222E-1
5.436069E-1
9.40881E-1
3.8737655E-1
8.106933E-1
6.833557E-2
8.052658E-2
8.7877536E-1
5.726563E-1
3.1039456E-1
6.7852086E-1
5.323151E-1
8.8903856E-1
4.9905783E-1
6.0493713E-3
9.3879735E-1
7.2201777E-1
4.6052387E-1
9.3679965E-1
6.719048E-1
3.530519E-1
2.4754836E-1
2.956092E-1
9.220694E-1
2.951893E-1
7.9263407E-1
7.91142E-1
3.206554E-2
4.7732475E-1
8.472878E-1
7.9641186E-2
2.809228E-1
6.3629884E-1
4.931711E-1
6.41902E-1
7.5708675E-1
2.3283516E-1
3.7087494E-1
5.061317E-1
1.82408E-1
5.8245355E-1
9.2824435E-1
5.289832E-1
8.5183614E-1
3.0277562E-1
6.066053E-2
5.7126033E-1
5.1436618E-2
7.516538E-1
1.5370998E-1
8.1748533E-1
9.456719E-1
5.2588075E-2
6.1864364E-1
5.031961E-1
9.27617E-1
1.9445637E-1
7.125791E-1
5.163344E-1
7.9938215E-1
5.84496E-1
4.182193E-1
4.659428E-1
2.2998495E-1
7.156075E-1
7.683477E-1
4.3343452E-1
9.074624E-1
8.8282585E-2
5.1202476E-1
3.44862E-1
5.6496876E-1
9.049562E-1
9.166051E-1
8.151191E-2
2.7962726E-1
4.8686522E-1
8.811537E-1
8.8055056E-1
5.470139E-1
5.805461E-1
2.2401515E-1
3.0294624E-1
9.246992E-1
8.96565E-1
5.861214E-1
7.135125E-1
4.4903878E-2
2.0523459E-1
8.123789E-1
6.685269E-1
8.8766783E-1
2.6651278E-1
1.11685626E-1
7.839809E-2
5.362685E-1
7.960351E-1
2.8536849E-2
5.7192194E-1
2.1359017E-1
4.3378532E-1
8.575309E-1
1.2499243E-1
4.3978247E-1
7.1273804E-1
6.704199E-1
7.060761E-1
6.1821204E-1
6.385187E-1
7.851267E-1
1.2192949E-1
4.1943306E-1
4.6755424E-1
7.278335E-1
7.9675484E-1
6.8208796E-1
1.6759194E-1
5.954942E-1
3.4998846E-1
7.0630836E-1
8.177832E-1
1.4577839E-1
9.884899E-2
2.7334112E-1
5.228955E-1
2.1604367E-1
7.854775E-1
9.79456E-1
3.506253E-1
2.6965806E-1
8.418735E-1
7.358827E-1
7.0403345E-2
9.784864E-1
6.168556E-1
9.645598E-1
6.3383526E-1
4.2937513E-2
6.326176E-1
2.1341138E-2
4.061584E-2
3.5799915E-1
8.021068E-1
6.4584553E-1
2.7341187E-1
1.2417988E-2
8.694895E-1
7.6619E-2
7.7241546E-1
7.417135E-2
1.8019708E-1
8.148513E-1
7.237603E-1
8.085724E-1
5.1746523E-1
1.5070006E-1
1.4792797E-1
6.928151E-1
5.116621E-1
7.313414E-1
5.355171E-1
6.531736E-1
1.1388404E-2
7.3859525E-1
9.055577E-1
2.115953E-1
5.813293E-1
1.3478588E-1
4.0451145E-1
8.994399E-1
3.4920874E-1
7.723479E-1
7.585052E-1
6.1375713E-1
3.2858682E-1
3.9189062E-1
8.12414E-1
1.355419E-1
6.2427914E-1
9.280015E-1
7.003024E-1
4.078991E-1
3.5791188E-1
4.0044126E-1
7.337689E-1
7.787734E-2
4.103577E-1
4.8535392E-1
6.8282646E-1
3.6325285E-1
2.4775615E-1
2.665432E-1
4.549974E-1
7.65952E-1
5.827966E-1
5.318467E-1
6.1789536E-1
2.9064032E-1
4.118879E-1
9.021992E-1
4.4401616E-1
2.5217432E-1
6.399311E-1
5.336801E-1
5.062194E-1
4.4818926E-1
3.5525134E-1
7.451901E-2
7.909024E-2
6.216642E-1
3.263285E-1
2.3833606E-1
7.990249E-1
6.9875665E-2
9.652176E-1
4.9618408E-1
9.682646E-1
5.057755E-1
6.262858E-1
8.110328E-2
5.3064562E-2
7.1066564E-1
7.173108E-1
7.27772E-2
9.3240273E-1
5.777355E-1
9.7781104E-1
9.226449E-2
1.713602E-1
3.4885737E-3
6.566797E-1
3.122387E-1
6.2359905E-1
9.734588E-1
5.500865E-1
5.373674E-1
9.288795E-1
3.7415513E-1
4.5985672E-1
7.9627454E-1
6.7128736E-1
4.9069765E-1
8.6085874E-1
3.980564E-1
9.0091044E-1
2.2805981E-1
6.59582E-1
3.3493033E-1
5.0557274E-1
5.6788164E-1
3.284711E-1
8.1955695E-1
2.5681138E-1
7.983682E-1
7.4448717E-1
8.030777E-1
2.974285E-1
7.161082E-1
6.073042E-1
2.3090856E-1
9.563077E-1
4.8423943E-1
2.4222651E-1
2.4829899E-1
8.339533E-1
7.405258E-1
9.606204E-1
9.649904E-1
7.438961E-1
4.2919168E-1
8.1273764E-1
8.769001E-1
6.706386E-1
6.5286523E-1
7.337897E-1
5.7539374E-1
7.0481306E-1
3.7870568E-1
2.1486282E-2
3.5513783E-1
7.80158E-1
5.210915E-1
1.0701891E-1
6.4527303E-1
5.561996E-1
1.6074948E-1
7.278234E-1
3.300146E-2
2.4423001E-2
4.0871066E-1
5.307807E-2
9.318609E-1
4.2953733E-1
7.031975E-1
1.1514835E-1
2.9635063E-1
5.782229E-1
4.889989E-1
9.7469974E-1
8.496046E-1
1.7742568E-1
7.9093814E-1
4.8012194E-1
4.0060264E-1
8.050059E-1
7.7297133E-1
1.2067392E-1
8.7254024E-1
7.9033904E-2
5.2163158E-2
9.958049E-1
9.680405E-1
5.200225E-1
6.039289E-1
9.0967315E-1
5.225961E-1
7.4652463E-1
5.491195E-1
7.52527E-1
2.7085492E-1
9.144815E-1
3.9717847E-1
8.254352E-1
8.2410055E-1
1.5579592E-1
7.466066E-2
6.356988E-1
2.665682E-1
5.406828E-1
8.109692E-1
3.3919656E-1
6.1951953E-1
7.00899E-1
7.0810163E-1
9.069237E-2
7.230722E-1
8.900505E-1
4.209523E-1
3.3239776E-1
4.7534364E-1
1.02299405E-2
8.4594077E-1
9.857359E-1
5.509197E-1
5.290282E-1
8.739254E-2
5.622717E-1
3.8398468E-1
6.785633E-1
5.435466E-1
7.77408E-1
9.700026E-1
3.1823674E-1
6.5063936E-1
2.0775625E-1
5.6225485E-1
6.730954E-2
5.344172E-1
7.854757E-1
1.11478925E-1
5.7209617E-1
3.9756596E-1
1.5984367E-1
3.395677E-1
7.0016724E-1
4.476742E-1
8.1480986E-1
1.08150974E-1
3.9884728E-1
6.2104917E-1
2.3991571E-1
2.5014803E-1
3.6077377E-1
1.6874088E-1
3.321706E-4
6.5367067E-1
2.1257019E-4
4.8802066E-1
3.9464062E-1
5.7060593E-1
3.0182943E-1
9.030527E-1
2.9403874E-1
1.6423611E-1
8.0850166E-1
9.0405065E-1
3.8723478E-3
4.608681E-1
9.9014574E-1
2.5781592E-2
4.0669447E-1
1.3648473E-1
2.1491422E-1
2.7538446E-1
1.4358851E-1
8.0437666E-1
4.37499E-1
5.001196E-1
7.6644695E-1
3.419318E-1
8.898591E-1
7.588299E-1
2.677173E-1
4.7157055E-1
2.1391715E-1
2.7449128E-1
9.5461607E-1
7.0289737E-1
4.5330682E-1
7.0856977E-1
2.6625194E-2
7.215718E-1
5.37313E-1
7.2299117E-1
8.0542135E-1
8.273256E-1
2.4142449E-1
4.2694035E-1
5.6809443E-1
7.6113796E-1
4.090235E-1
1.9604114E-1
9.11869E-1
7.865563E-1
9.603729E-1
4.2239985E-1
2.2457261E-1
7.51626E-1
2.7852064E-1
3.450355E-1
4.8523077E-1
7.514062E-1
4.9330613E-1
5.97403E-1
3.9009887E-1
7.090027E-1
6.2925595E-1
5.782707E-1
3.482332E-1
2.5988707E-1
8.967678E-1
8.911184E-1
6.1463875E-1
2.1387513E-1
9.5684266E-1
3.8498735E-1
3.616328E-1
2.379054E-1
7.076338E-2
1.634974E-1
2.986556E-2
6.3123524E-1
7.638384E-1
7.770717E-1
2.8202018E-1
5.050032E-1
9.45786E-1
5.2376837E-1
1.4533886E-1
9.791693E-1
2.5574234E-1
1.7389119E-1
2.573237E-1
9.074048E-1
6.931066E-1
8.38578E-1
1.8226115E-1
4.5819986E-1
5.302767E-1
7.304268E-2
5.3071475E-1
8.0063146E-1
9.333583E-1
4.306343E-1
3.6159122E-1
6.466408E-1
8.934899E-1
4.6167234E-1
4.5915115E-1
3.4935594E-2
4.0915367E-1
1.6837147E-1
5.028309E-1
8.103629E-2
2.3939444E-1
7.459182E-4
1.0406863E-1
8.447076E-1
3.0747508E-3
3.363815E-1
4.9538538E-1
2.8709933E-1
9.898895E-1
4.3900308E-1
9.780183E-2
9.668749E-2
6.403823E-1
5.4236174E-1
4.52754E-1
2.910517E-1
8.102313E-1
7.193513E-1
2.0975964E-1
5.0815356E-1
9.8532844E-1
2.7218148E-1
1.7253447E-1
9.6148723E-1
2.3379742E-1
5.7381576E-1
2.1278481E-1
4.8311368E-1
9.256294E-1
1.2403164E-1
7.1729153E-1
7.366339E-1
7.161445E-1
5.973682E-1
3.4210494E-1
7.920491E-1
2.5019154E-1
9.972864E-1
6.44632E-1
7.067324E-2
1.329917E-1
7.2524005E-1
7.561247E-1
9.776887E-1
1.730594E-1
5.804534E-1
4.6888798E-1
3.1085923E-1
9.809987E-1
5.311118E-1
6.698304E-1
9.3616754E-1
8.446732E-1
9.255632E-1
6.569676E-1
1.7951107E-1
5.370192E-1
2.7273613E-1
1.9630599E-1
9.0938276E-1
4.3361774E-1
3.9675674E-1
8.55943E-1
9.298353E-1
5.5006456E-1
8.222899E-1
4.0137443E-1
3.3320263E-1
3.4272307E-1
6.181645E-1
6.9641805E-1
3.2155058E-1
6.4804536E-1
3.9319056E-1
6.049662E-1
2.338899E-1
1.9837023E-1
8.7302303E-1
3.9204344E-1
9.244103E-1
9.974792E-1
6.6405046E-1
5.280393E-1
5.399452E-1
5.3840667E-1
8.125667E-2
8.850938E-1
2.705457E-1
8.103578E-1
5.001465E-1
8.282923E-1
6.768151E-1
9.4833505E-1
4.326838E-1
1.9398731E-1
8.9406866E-1
8.5934365E-1
1.5163925E-1
8.8453245E-1
8.060747E-1
3.0685037E-1
5.216437E-1
7.6072824E-1
1.9390091E-1
3.2835305E-1
1.410946E-2
7.727928E-1
2.3351504E-1
3.831276E-1
5.9333754E-1
6.063835E-1
6.562324E-1
2.2771096E-1
8.963694E-1
1.6421027E-1
2.1248196E-1
1.8042502E-1
2.1791862E-1
4.4761336E-1
8.599193E-3
6.459313E-1
9.175461E-1
5.188313E-1
6.4764017E-1
7.470509E-1
5.867146E-1
7.5623107E-1
3.0354145E-3
6.1797273E-1
2.360066E-1
8.7622064E-1
8.226345E-1
9.312762E-2
5.77784E-1
7.4858767E-1
2.7972272E-1
4.609676E-1
8.454754E-1
4.5430222E-1
6.2172854E-1
1.6953023E-1
9.4587684E-1
7.831489E-2
2.140037E-1
7.021801E-2
7.717927E-1
9.0587896E-1
6.075175E-1
9.388979E-2
4.700471E-1
2.7705938E-1
4.611099E-2
4.2041394E-1
6.283048E-1
4.9245992E-1
5.553743E-1
5.1284057E-1
4.5831951E-1
8.093419E-1
6.7542094E-1
3.1514922E-1
6.943122E-1
2.168024E-1
6.1192185E-1
8.389004E-1
8.3306366E-1
5.574626E-1
5.0422484E-1
8.111409E-1
2.5566387E-1
4.2021084E-1
2.2408539E-1
5.125515E-1
9.293445E-1
4.7420365E-1
1.6751154E-1
5.141397E-1
2.9628947E-1
2.467577E-1
3.1063464E-1
8.518418E-2
3.5479057E-1
7.5751996E-1
1.9828941E-1
2.069363E-1
1.6131862E-1
6.274023E-1
4.3765292E-1
1.9272684E-1
5.030825E-1
1.0706894E-1
2.8579095E-1
8.9643784E-2
6.669185E-1
6.3187134E-1
4.6144524E-1
1.8841034E-1
1.9597374E-3
7.242085E-1
8.628871E-1
4.302378E-1
6.692032E-1
8.863019E-2
1.606178E-1
8.471261E-1
3.5442004E-1
2.0163074E-1
9.7284716E-1
8.152061E-1
8.062401E-1
8.6294895E-1
5.082982E-1
9.4389373E-1
7.116701E-1
2.7252135E-1
8.032438E-1
7.638069E-1
9.0788585E-1
9.0478784E-1
3.556876E-1
7.6640695E-1
9.3571866E-1
9.4769484E-1
9.520176E-1
4.458656E-1
9.408539E-1
5.848773E-1
4.9002787E-1
5.229068E-1
8.79796E-1
9.777638E-1
9.232791E-1
8.713957E-3
9.9166375E-1
9.438808E-1
3.817806E-1
7.8801565E-2
3.2219148E-1
9.463244E-2
2.4873066E-1
3.7563822E-1
8.556476E-1
1.247853E-1
7.245494E-1
7.0041925E-1
5.5438113E-1
2.9100356E-1
9.486594E-1
9.844643E-2
6.627964E-1
9.128226E-1
8.9829755E-1
7.3139167E-1
1.3369809E-1
7.94691E-1
9.6001107E-1
1.052584E-1
5.537295E-1
9.668202E-1
4.152414E-1
6.6151315E-1
9.038085E-1
9.4720674E-1
9.954977E-1
1.7221405E-1
6.4312965E-1
9.635172E-2
1.446125E-1
4.952416E-2
8.3558404E-1
8.0063474E-1
4.1658556E-1
8.7049997E-1
8.4701806E-1
5.5655026E-1
4.5689255E-1
6.2370795E-1
7.7890784E-1
1.0167684E-1
8.897089E-1
6.963335E-3
3.0152917E-1
2.9685512E-1
3.9759713E-1
3.9293832E-1
6.324349E-1
6.5145123E-1
7.7489424E-1
4.3204147E-1
8.5040295E-1
9.27249E-1
8.493703E-1
6.566759E-1
7.950396E-1
5.671464E-1
5.378325E-1
9.304324E-2
8.955225E-1
8.584804E-1
1.4344181E-1
4.2717725E-1
6.879753E-1
8.228035E-1
7.634371E-2
7.513963E-1
9.183809E-1
8.734766E-1
9.1376704E-1
3.4688424E-2
4.1946334E-1
5.032861E-1
6.8211816E-2
8.533801E-1
9.426074E-1
7.170256E-1
3.552779E-1
1.1084488E-1
8.8653E-1
7.642758E-1
5.4675406E-1
5.9296787E-2
3.4155434E-1
2.1312064E-1
9.01587E-1
3.8234732E-1
5.6075627E-1
6.063844E-1
8.4268177E-1
1.6031342E-2
1.0060173E-1
1.0818725E-1
6.8769157E-1
1.2927802E-1
3.3832434E-1
4.93603E-1
5.584071E-1
6.4761564E-2
2.2197618E-1
4.9380353E-1
5.6913877E-1
3.4727495E-2
1.4180595E-1
2.6841974E-1
7.0695025E-1
6.9574636E-1
9.622749E-1
7.8856117E-1
1.0858531E-1
2.8550845E-2
5.887846E-1
3.5528186E-1
8.154326E-1
4.1253346E-1
4.757671E-1
1.5699552E-1
9.972202E-1
6.123848E-1
4.7681347E-1
1.4564177E-1
2.9009214E-1
9.1064566E-1
6.141606E-1
9.906981E-1
5.9330547E-1
8.213221E-1
5.390227E-1
2.4646904E-1
2.2559498E-1
2.7845327E-2
9.4987994E-1
4.182259E-1
7.931974E-1
2.0927596E-1
4.8333332E-1
4.7920203E-1
9.974825E-1
3.7916827E-1
7.661977E-1
8.473473E-1
6.2224644E-1
8.502276E-1
5.374158E-1
9.150085E-1
6.1785626E-1
8.967055E-1
1.2123036E-1
3.072939E-1
7.243542E-1
2.3137061E-1
8.673867E-2
2.853867E-1
6.2090516E-1
4.2468327E-1
5.044E-1
5.335141E-1
8.036289E-1
5.354005E-1
1.2538096E-1
9.8153925E-1
2.1171348E-2
3.23952E-2
5.0719255E-1
2.870436E-1
8.140397E-1
9.263914E-1
5.496825E-1
6.478424E-1
9.71928E-2
1.3790624E-1
4.5343578E-2
4.8189986E-1
9.0244114E-1
6.080097E-1
9.6375763E-1
6.0753703E-1
6.907385E-1
5.1528424E-1
7.4256843E-1
7.077081E-2
2.3891816E-1
5.5080026E-1
5.67096E-1
8.934752E-1
2.705168E-1
2.4022014E-1
1.6207078E-1
3.9800823E-1
4.586707E-1
8.7693706E-2
4.9721703E-1
8.0875814E-1
1.5088242E-1
2.8167316E-1
9.4039744E-1
8.469959E-1
2.915772E-1
9.125991E-1
5.110179E-1
7.107394E-1
8.310257E-1
7.3315084E-1
9.0069145E-1
6.326113E-1
1.9532771E-1
2.2059415E-1
7.691473E-1
1.3516667E-1
9.426477E-1
2.5418678E-2
5.0979775E-1
2.6440617E-1
7.8055865E-1
4.8368222E-1
1.3793185E-1
5.5622673E-1
9.817174E-1
1.5669605E-1
3.8204128E-1
1.3300402E-1
4.1468095E-2
4.835679E-1
6.3035704E-2
9.7792476E-1
6.0196817E-1
7.3890346E-1
5.978796E-1
4.5496047E-1
3.7369803E-1
5.4690164E-1
5.047296E-3
4.1699764E-1
6.463084E-2
6.253744E-1
1.4841683E-1
6.979558E-1
7.967039E-1
3.4600046E-1
6.442079E-1
4.2106307E-1
4.656772E-1
1.9654946E-3
2.3777355E-1
3.727693E-1
6.3894004E-1
1.4801203E-1
5.8960414E-1
9.7265774E-1
5.753769E-1
6.7702055E-1
5.2200955E-1
3.321518E-1
8.4049773E-1
6.7787474E-1
2.6302955E-1
8.7504464E-1
7.41854E-1
9.4082594E-1
6.919352E-1
2.9615197E-1
9.653746E-1
6.3554853E-1
1.7077388E-1
3.2206324E-1
4.9175784E-1
2.0155779E-1
3.6005628E-1
5.804288E-1
2.1671137E-1
8.42665E-1
4.9286774E-1
9.1549766E-1
7.6604426E-1
9.374244E-1
1.0804399E-1
2.5433666E-1
8.310372E-1
7.945908E-1
4.1263622E-1
9.36645E-2
8.173503E-1
4.9668808E-2
3.4369227E-1
2.67994E-1
8.710752E-1
5.677408E-1
6.166317E-1
8.089914E-1
3.5895884E-1
9.557747E-1
4.7350496E-1
2.5774178E-1
7.426563E-2
9.220408E-1
3.9230528E-1
6.646054E-1
1.69515E-2
4.8883334E-1
8.4124416E-1
2.7980417E-1
2.8340212E-1
1.6198865E-1
4.588735E-1
8.928444E-1
5.8600855E-1
8.053981E-1
7.1897817E-1
5.4139173E-1
5.598632E-1
7.122804E-1
6.820841E-1
6.7044127E-1
5.5351996E-1
6.1319995E-1
8.85546E-1
8.031761E-3
4.4255466E-3
8.7489015E-1
9.6494377E-1
3.0662814E-1
2.9352337E-1
1.5887004E-1
7.533713E-1
4.2016503E-1
3.1191185E-2
6.18484E-1
7.860704E-1
8.7008756E-1
5.2397836E-2
2.694671E-1
5.7533383E-1
2.0001926E-1
8.7767637E-1
1.0215646E-1
1.6896833E-1
1.702117E-1
1.7214967E-1
2.3003484E-1
2.357594E-1
1.0855436E-1
4.0085846E-1
7.315549E-1
9.88785E-1
7.741821E-1
9.368976E-2
6.9698733E-1
8.143352E-1
9.579274E-1
8.558264E-1
7.4052215E-1
7.9699314E-1
9.496375E-1
1.7751835E-1
5.90403E-1
3.3009055E-1
4.0790007E-1
5.42903E-1
2.4796478E-1
4.9590543E-1
7.382035E-1
8.5690546E-1
8.888984E-1
7.271117E-1
7.803521E-1
5.6184626E-1
5.401919E-1
6.4325523E-1
6.847608E-1
6.791835E-1
5.263845E-1
3.150246E-1
2.1611899E-1
3.8088346E-1
8.6032104E-1
4.9185088E-1
9.790563E-1
4.98309E-1
7.542013E-1
9.4489056E-1
5.5946225E-1
6.1876085E-2
5.3812855E-1
9.4950956E-1
1.1401137E-1
1.2476008E-1
9.170709E-1
6.529239E-1
4.7231898E-1
8.614493E-2
7.957899E-1
2.676957E-1
8.889143E-1
7.895999E-1
9.903017E-1
1.2426018E-1
7.860787E-1
1.735507E-1
5.1995523E-2
8.695546E-1
4.9728158E-1
8.3056115E-2
1.3286473E-1
5.061148E-1
4.3603715E-1
2.538541E-1
3.7410253E-1
7.8740007E-1
9.0355784E-1
3.7510175E-1
8.78493E-2
2.5057906E-1
2.6701009E-2
9.433541E-1
2.4886046E-1
5.8820206E-1
3.626176E-1
9.740691E-1
9.175417E-2
5.208028E-1
4.191612E-1
7.208053E-1
7.001641E-1
3.7785476E-1
1.04842834E-1
4.414826E-1
7.4553424E-1
5.081446E-1
3.5916424E-1
3.036128E-1
2.7873057E-1
4.502058E-1
3.3906046E-1
4.2057663E-1
2.1185313E-1
4.1211337E-1
1.3905603E-1
7.7074504E-1
2.6176545E-1
3.0464384E-1
5.15133E-1
7.068225E-1
7.0120484E-1
2.3063606E-1
1.9427212E-1
4.271692E-2
5.961066E-1
5.693987E-1
9.7666377E-1
6.7769074E-1
8.4584314E-1
1.9400683E-1
5.6612056E-1
3.9768723E-1
3.5113394E-1
2.6731795E-1
5.04847E-1
5.2385753E-1
4.3344986E-1
7.5156057E-1
6.1324435E-1
8.284139E-2
2.0756035E-1
4.238103E-1
7.472707E-1
6.454164E-1
3.1484285E-1
2.176846E-2
5.538077E-1
4.3793285E-1
4.424258E-1
4.2613107E-1
6.303477E-1
8.5500443E-1
9.953006E-1
9.406406E-1
7.079873E-1
1.5716991E-1
9.676727E-1
9.617E-1
7.5332236E-1
1.8933016E-1
5.040964E-1
4.258659E-2
6.183624E-1
5.2979845E-1
4.5142603E-1
2.7700743E-1
5.613056E-1
6.6115534E-1
6.200686E-1
5.672131E-1
4.6271566E-1
6.5802854E-1
5.442593E-1
7.58665E-1
3.4138176E-1
4.1819386E-2
8.4298307E-1
7.5712705E-1
4.374118E-1
7.729969E-1
4.7287387E-1
9.5999306E-1
9.5330805E-1
3.1873557E-1
5.519341E-1
7.228942E-1
4.3919425E-2
9.899715E-1
4.2834067E-1
7.2978605E-3
3.1938374E-1
8.771916E-1
6.8572766E-1
1.3440946E-1
7.249854E-1
7.040049E-1
6.133031E-1
2.814438E-1
4.8711812E-1
3.6332756E-1
1.2764268E-1
6.73541E-1
1.8597436E-1
3.8819373E-2
3.4208307E-1
5.5292135E-1
9.2145455E-1
8.6051595E-1
9.0898913E-1
9.250883E-1
7.926094E-1
5.9146976E-1
5.296335E-1
7.849889E-2
8.8472897E-1
3.1446877E-1
5.6724465E-1
6.061111E-1
1.6522865E-1
4.5905396E-1
6.840882E-1
2.977584E-1
4.1321453E-1
6.769345E-1
6.262439E-2
4.0494815E-1
1.4932209E-1
1.6542206E-2
5.8838254E-1
3.141788E-1
1.5649118E-1
7.337386E-1
3.4873843E-1
4.254681E-1
9.791296E-1
1.8334678E-1
2.358176E-1
4.774711E-1
8.83748E-1
6.5065056E-2
3.1974027E-1
4.881315E-1
4.9930605E-1
9.373604E-1
1.7391346E-1
9.851346E-1
4.5156124E-1
4.907501E-1
1.9036029E-2
7.816472E-1
6.9048935E-1
2.0113814E-1
9.707631E-1
9.7286624E-1
9.1797984E-1
5.0391775E-1
7.5202346E-2
5.793787E-1
9.043122E-1
1.2373442E-1
4.9922732E-1
7.225188E-1
5.925141E-1
2.7933943E-1
9.089218E-2
4.1996863E-1
9.5242226E-1
8.559756E-1
4.3380487E-1
1.987495E-1
4.1135958E-1
6.0064215E-2
6.6179335E-2
4.2381144E-1
7.2503513E-1
1.1142907E-1
5.566621E-1
7.306754E-2
2.4028705E-1
5.800606E-1
6.3951296E-1
2.332577E-1
5.7453126E-1
1.5583564E-1
9.447407E-1
8.13306E-1
3.1897378E-1
8.1927603E-1
9.990961E-1
6.5442497E-1
4.2319003E-1
7.474946E-1
2.255412E-1
1.1581388E-1
1.1160637E-1
5.4679614E-1
9.950644E-1
7.008839E-2
8.8690853E-1
6.2851745E-1
2.8817528E-1
7.61718E-1
5.6146693E-1
9.106423E-2
4.759896E-1
6.113024E-1
7.239934E-2
4.3511704E-1
9.5227057E-1
2.1258803E-1
6.895562E-2
8.05228E-1
3.405154E-1
3.5628017E-2
2.1698266E-1
4.2857942E-1
9.903675E-2
3.6776167E-1
4.838005E-1
3.3731347E-1
1.4645723E-1
3.6357476E-3
3.671851E-1
3.6986163E-1
2.0582748E-3
8.1941134E-1
6.483073E-1
9.702287E-1
7.5052056E-5
5.8465177E-1
6.4768296E-1
7.396171E-1
7.921261E-1
6.109706E-1
7.157532E-2
9.6417114E-2
4.4933534E-1
6.108365E-1
3.4218472E-1
8.169141E-1
1.6152228E-1
1.6214931E-1
3.7635294E-1
6.1431336E-1
1.371341E-1
3.835473E-1
3.7576888E-2
4.2728642E-1
9.3839717E-1
3.3534208E-1
9.80909E-1
2.2315224E-1
1.58598E-1
4.0972748E-1
8.625046E-1
8.7940454E-1
3.719118E-1
8.994507E-1
8.2588255E-1
6.7193866E-1
7.993615E-1
7.56879E-1
1.136283E-1
1.3153117E-2
4.7267497E-2
1.2134393E-1
1.3101298E-1
5.284911E-1
6.071223E-1
3.5416186E-1
3.8328937E-1
5.0902146E-1
7.9055476E-1
4.3706986E-1
2.7888066E-1
3.2158902E-1
4.1103563E-1
4.5097333E-1
8.324843E-1
2.2065765E-1
6.5779525E-1
5.7028884E-1
6.9910526E-1
9.046761E-1
3.014205E-1
8.0940145E-1
5.3185683E-1
2.1268236E-2
9.292436E-1
3.8491037E-1
2.541304E-2
7.2048116E-1
5.177099E-1
6.008405E-1
4.0859604E-1
6.9188565E-1
2.6327664E-1
2.9446602E-1
9.9967724E-1
5.280993E-1
3.1813166E-1
4.7207198E-1
3.7758943E-1
9.8958516E-1
3.0156213E-1
8.3292353E-1
6.9868636E-1
5.462322E-1
8.1239575E-1
5.746712E-1
1.2156016E-1
3.0343556E-1
2.9288706E-1
3.6485592E-1
5.189869E-1
7.793007E-1
9.9397284E-1
7.402531E-1
2.3870192E-1
6.433823E-1
6.5724987E-1
1.9491243E-1
2.4412622E-1
7.332126E-1
5.2958953E-1
3.464459E-1
5.2953166E-1
2.8927794E-1
1.6186135E-1
3.8482025E-1
7.0555466E-1
7.7750933E-1
3.8719323E-1
6.511814E-1
4.4771713E-1
2.1979855E-1
8.6052805E-1
2.7162856E-1
8.383451E-1
2.4997598E-1
5.206074E-1
5.531756E-1
9.3419933E-1
9.8877597E-1
7.5698024E-1
7.988066E-1
8.6298275E-1
5.402215E-2
6.74864E-1
3.1232905E-1
7.3393E-1
1.8424306E-2
8.410079E-2
3.8447377E-1
9.064974E-1
9.274096E-1
8.9988637E-1
8.9537245E-1
4.4286755E-1
8.8689494E-1
4.1510988E-2
7.9330646E-2
5.218849E-1
9.9735427E-1
6.625314E-1
1.5658865E-2
5.902797E-1
1.3439012E-1
6.0962886E-1
3.8898957E-1
9.5461917E-1
2.1720693E-2
1.8972659E-1
6.173491E-1
3.985734E-1
1.05703056E-1
7.3710304E-1
2.575454E-1
7.9735464E-1
8.081613E-1
6.579508E-1
9.765877E-1
9.0487367E-1
2.5438627E-2
9.817741E-1
3.260576E-1
1.700619E-1
5.8263844E-1
1.4437416E-1
4.7354448E-1
8.064627E-1
4.4683948E-1
2.1858422E-2
8.634499E-2
3.263622E-1
2.683186E-1
6.386553E-1
2.0462526E-1
1.6237672E-1
1.7184924E-1
6.980783E-1
9.502508E-1
3.443548E-1
5.470739E-1
1.6486962E-1
5.923098E-1
1.8609683E-1
3.4359035E-1
6.072779E-1
6.67711E-1
9.236842E-2
8.4372395E-1
3.69496E-1
8.870243E-1
8.6648357E-1
5.71612E-1
7.277914E-1
4.304651E-1
9.3744475E-1
6.8593574E-1
5.5301374E-1
5.272537E-1
8.222811E-1
1.3254625E-1
9.0408695E-1
9.254237E-1
5.189273E-1
1.5346026E-1
8.9480674E-1
8.745487E-2
4.8693725E-1
8.442634E-2
4.7000885E-1
7.049482E-1
3.7225226E-1
8.373579E-1
4.7477138E-1
6.777702E-1
6.006038E-1
3.6126032E-1
7.5839645E-1
1.8612266E-1
6.8854463E-1
6.6220456E-1
8.672189E-1
6.898026E-1
3.6160052E-1
7.236255E-1
9.48379E-1
6.054047E-1
8.1946665E-1
7.717007E-1
3.7467423E-1
6.140553E-2
8.312442E-1
5.3516376E-1
6.116153E-1
2.3834617E-1
3.806284E-1
9.259158E-1
2.1837619E-1
5.334825E-1
9.6243024E-1
8.152323E-1
6.806514E-2
6.3232845E-1
1.8297273E-1
8.0716074E-1
8.6080754E-1
6.589043E-2
1.04971185E-1
3.7865183E-1
2.3160507E-1
8.5126275E-1
5.21627E-1
2.8477457E-1
1.75545E-1
1.2647365E-1
9.34438E-1
6.00746E-1
4.5141724E-1
6.368034E-1
1.2319205E-1
9.113908E-1
3.4334278E-1
6.5550596E-1
5.7013845E-1
7.72818E-2
5.2942026E-1
5.5790627E-1
3.2617524E-1
1.08388394E-1
3.84404E-1
3.7247315E-1
9.57138E-2
7.100432E-1
6.3156044E-1
3.067464E-1
5.65789E-1
9.880981E-1
8.8337016E-1
7.5605243E-1
3.9040485E-1
3.1285137E-1
7.828889E-1
7.226412E-1
7.8115237E-1
2.6874346E-1
9.9200493E-1
1.8449117E-1
6.646798E-1
7.738838E-1
1.4280448E-2
4.7396553E-1
2.7931765E-1
5.530009E-1
7.1400344E-1
6.204225E-1
1.1061652E-1
5.9260046E-1
2.6573476E-1
8.497863E-1
9.9265754E-2
8.068696E-1
6.515063E-1
9.946529E-1
6.198747E-1
5.1456004E-1
7.2821134E-1
9.975016E-1
6.716948E-1
6.2656724E-1
4.180853E-1
3.8959968E-1
9.493933E-1
4.658561E-1
9.5050645E-1
6.362191E-1
2.5723797E-1
9.376081E-1
1.9047399E-1
9.3169653E-1
2.932032E-1
9.6749735E-1
9.6016973E-1
2.616173E-1
4.0735325E-1
8.501222E-3
2.1275692E-1
4.250734E-1
2.2802846E-1
6.1410666E-1
5.5739325E-1
3.5274705E-1
1.9165011E-2
5.285781E-1
5.330498E-1
9.293728E-1
2.556525E-1
8.552806E-1
6.7529196E-1
2.286999E-1
7.196108E-1
1.3519517E-2
8.324782E-2
3.1944358E-1
5.539892E-1
7.26133E-1
5.249859E-1
5.158584E-1
7.3075926E-1
7.930007E-1
8.6457986E-1
9.999704E-1
6.472629E-1
6.5814257E-1
5.771216E-1
8.7295514E-1
8.7197864E-1
6.4308435E-1
8.121744E-1
9.2903964E-2
5.295905E-1
3.0465513E-1
7.7824545E-1
3.8905075E-1
8.547274E-1
4.6125522E-1
3.7562096E-1
8.7780905E-1
1.4964287E-1
4.9088612E-1
8.21641E-1
7.663321E-1
9.2839724E-1
4.415016E-3
9.0509605E-1
8.517691E-1
5.110166E-1
5.8216286E-1
4.8565546E-1
3.3986613E-1
2.742143E-1
3.536599E-1
1.7921343E-1
1.1737615E-1
8.1121016E-1
3.595001E-2
9.0360296E-1
6.4591914E-2
1.6052394E-1
7.245146E-1
8.3380044E-1
4.3160248E-1
7.020878E-2
7.6591206E-1
8.941368E-1
4.7067067E-1
9.649075E-2
8.8621545E-1
7.173705E-1
7.0412695E-1
1.2364927E-1
4.1587365E-1
2.0321342E-1
4.838599E-1
1.884307E-2
1.3754764E-1
8.1997377E-1
5.1401746E-1
6.1056215E-1
2.985613E-1
9.753086E-1
2.0929162E-1
6.508658E-1
5.0553787E-1
6.555037E-1
1.2464755E-1
6.123427E-1
8.351682E-1
1.0766729E-1
1.309346E-1
9.8748326E-1
5.9157544E-1
5.2982E-1
9.7230005E-1
5.882604E-1
3.747581E-1
7.8399277E-1
5.1023716E-1
4.481866E-3
3.2408032E-1
1.7388183E-1
8.0704266E-1
3.2451144E-1
4.8493645E-1
8.191329E-1
1.7957315E-2
9.548882E-1
3.302871E-1
1.5712827E-1
7.726432E-2
1.07223265E-1
1.10725775E-1
3.231233E-1
4.4181317E-2
6.109348E-1
8.671031E-1
2.9687956E-1
9.976212E-1
1.1548E-1
9.2853093E-1
8.84632E-1
2.8467494E-1
3.6900598E-1
1.2659273E-1
8.995514E-1
8.129618E-1
6.608755E-1
9.112895E-2
7.8786874E-1
7.6442623E-1
5.951631E-1
9.896072E-1
3.1427217E-1
6.364393E-1
4.277054E-1
5.2670974E-1
5.8522034E-1
7.727876E-1
8.4616214E-1
5.1445657E-1
1.3598421E-1
8.2651746E-1
7.323706E-1
4.4916987E-1
5.65017E-1
5.3196675E-1
8.47991E-1
6.3686794E-1
3.8470763E-1
5.525509E-1
7.9632354E-1
4.9420542E-1
2.7903724E-1
9.571889E-1
1.5354314E-1
8.925831E-2
6.7440814E-1
4.3074587E-1
4.8254457E-1
8.625658E-1
7.416767E-1
7.96137E-1
2.4023123E-1
2.5079066E-1
1.2374644E-1
5.835935E-1
3.7666994E-1
3.63029E-1
7.9603386E-1
3.0643952E-1
9.5451957E-1
8.207963E-1
9.0922624E-1
2.5065562E-1
6.8241227E-1
6.832797E-1
6.5181464E-1
5.626718E-1
3.0053517E-1
6.510382E-1
6.810711E-1
7.697214E-1
1.0390655E-1
9.7535074E-1
6.64976E-2
6.136603E-1
5.2524483E-1
1.479877E-1
9.744143E-1
9.2801625E-1
6.7536116E-1
9.4386625E-1
6.879772E-1
4.907598E-1
9.096539E-1
6.768368E-1
1.1193423E-1
2.0463336E-1
8.1232524E-1
3.3207256E-1
8.994473E-1
3.3421788E-1
7.281594E-1
2.3772775E-1
1.5944079E-1
9.7833943E-1
8.437079E-1
2.2450912E-1
7.442837E-1
6.6577435E-2
5.671316E-2
1.1432823E-1
4.931057E-1
7.950776E-1
7.468762E-1
2.0206283E-1
2.1355149E-1
5.4603684E-1
7.869645E-1
4.203158E-1
2.4360679E-1
3.1890836E-1
4.403534E-1
2.8557143E-1
8.507632E-1
2.906877E-2
5.3009325E-1
8.1263244E-1
8.4357834E-1
8.737315E-2
2.0002598E-1
7.8161705E-1
2.632346E-1
5.61307E-1
5.4146294E-2
4.9200687E-1
6.0823435E-1
4.5796695E-1
3.477144E-1
8.1865746E-1
9.50905E-1
5.0551903E-1
2.3237693E-1
8.574227E-1
2.5760248E-1
7.3496974E-1
5.110493E-1
8.554307E-1
6.526651E-1
5.9024215E-1
8.1369644E-1
7.7355564E-1
8.8790925E-3
4.969565E-1
1.6261226E-1
9.4941545E-1
4.195324E-1
2.4711631E-1
1.3731255E-1
4.9338248E-1
6.434534E-1
9.37687E-1
4.1936693E-1
3.0816334E-1
6.6478336E-1
7.1154433E-1
2.928391E-1
2.0151389E-1
4.80791E-1
5.8888596E-1
1.4949395E-1
9.714297E-1
9.215468E-1
5.662137E-1
9.099897E-1
6.071626E-1
3.6368763E-1
7.631355E-1
1.466075E-1
9.48925E-1
2.9091057E-1
4.6420336E-1
7.2352827E-1
5.8125055E-1
8.64941E-3
2.9729342E-1
1.675155E-1
8.8526726E-1
7.240043E-1
1.719962E-2
3.89237E-1
5.1614296E-1
9.0423834E-1
8.3813226E-1
1.3035233E-1
4.552429E-1
6.1960316E-1
9.239123E-1
1.3282761E-1
6.1996925E-1
9.0778893E-1
1.8698227E-1
1.9867238E-1
7.985091E-1
5.046308E-1
9.778972E-1
1.3972822E-1
2.721873E-1
2.503441E-1
3.0932716E-1
3.8551855E-1
3.0476484E-1
4.9492925E-1
8.025681E-1
5.404403E-1
2.5198868E-1
6.953398E-1
2.9917893E-1
1.0889223E-1
8.947599E-1
6.982291E-1
7.694749E-1
2.7492133E-1
8.074565E-1
4.7761092E-1
1.6652872E-1
3.964336E-1
6.740146E-1
8.8681537E-1
4.9332365E-1
1.3238427E-1
4.3622515E-1
8.245283E-1
3.3495215E-1
5.869182E-1
8.660317E-1
6.3013774E-1
6.6138345E-1
8.250985E-1
8.934497E-1
1.8640901E-1
6.092048E-1
2.2406648E-1
7.5177187E-1
6.9198716E-1
1.0205629E-1
6.428772E-1
3.3497876E-1
3.194251E-1
7.804162E-1
5.768268E-1
4.0994304E-1
7.9485106E-1
3.3280343E-1
2.5357138E-3
8.616196E-1
9.5796907E-1
4.473131E-1
9.516773E-1
5.600408E-1
8.1395686E-1
9.825557E-1
9.8118156E-1
1.9107726E-1
4.3095356E-1
9.8604465E-1
4.8961252E-1
2.2849646E-1
5.7919985E-1
9.973731E-1
7.790735E-2
8.3178884E-1
1.4797886E-1
7.370681E-1
9.739334E-1
4.5235762E-1
9.374227E-1
4.6210874E-2
4.8372868E-1
4.7580574E-2
2.7786472E-1
9.383115E-1
1.8895052E-1
9.975571E-1
3.1789967E-1
5.0709563E-1
6.9295025E-1
4.6654335E-1
1.05517775E-1
5.5564487E-1
9.7029775E-1
3.541124E-1
4.1076607E-1
8.839036E-1
1.9033588E-1
4.5994613E-1
1.401905E-1
8.887896E-1
4.4294038E-1
5.285622E-1
8.5132766E-1
5.945401E-1
9.759166E-1
8.550634E-2
8.8715464E-1
9.273082E-1
9.5753783E-1
8.7575734E-1
5.3135216E-1
5.392394E-2
2.2808045E-1
6.1820537E-2
2.7972355E-1
6.178351E-1
2.4996285E-1
9.9697083E-1
5.490655E-1
6.64537E-1
7.260701E-1
5.0737554E-1
5.7269937E-1
2.5238943E-1
3.0292988E-1
1.5593621E-1
9.439494E-1
5.134518E-1
4.2512307E-1
1.22671105E-1
3.9447916E-1
9.046976E-1
4.1463357E-1
2.9237968E-1
2.8816456E-2
9.9600977E-1
7.2136486E-1
5.293838E-1
2.3970646E-1
4.483133E-1
6.8265444E-1
3.4345627E-2
9.422384E-1
8.7197E-1
3.4632418E-1
4.001764E-1
5.6969386E-1
4.5824173E-1
8.2818806E-1
3.6417457E-1
9.031764E-1
8.1099254E-1
2.3375502E-1
9.748115E-1
8.909214E-1
6.7958105E-1
5.802338E-1
6.248782E-1
4.9627262E-1
4.4887722E-1
3.799358E-2
5.6054425E-1
5.6889683E-2
1.3238615E-1
6.1375566E-2
2.4222293E-1
3.5213107E-1
1.4959884E-1
9.127715E-1
6.2124366E-1
9.625628E-1
4.5833743E-1
7.661209E-1
4.624466E-1
3.3683947E-1
8.3203506E-1
4.297768E-1
7.489061E-1
1.1523268E-1
1.7884882E-1
4.8799118E-1
8.606922E-1
5.8456975E-1
1.4687671E-1
2.5057507E-1
2.637114E-1
1.5672287E-2
7.8062975E-1
8.10597E-1
3.916778E-1
3.3907458E-1
8.479906E-1
6.458667E-1
9.6954364E-1
4.9735237E-2
7.2846967E-1
5.862901E-1
5.775709E-1
9.89586E-1
8.6667687E-1
7.983713E-1
4.0059817E-1
3.4076414E-1
7.867142E-2
6.7280084E-1
5.998599E-1
1.7347936E-1
6.157268E-1
5.501616E-2
5.8833057E-1
6.935368E-1
1.5917763E-1
1.0992254E-1
6.1542654E-1
9.786385E-1
8.540529E-1
1.5249968E-1
7.432021E-1
8.462178E-1
1.693055E-1
9.3290585E-1
7.887188E-1
3.427897E-1
2.7151263E-1
7.9260397E-1
5.310892E-1
4.4996977E-1
2.5921242E-2
7.283488E-1
1.6216195E-1
4.8766013E-2
2.1083285E-1
5.5857104E-1
7.238805E-1
3.0496702E-1
3.5220873E-1
3.5421708E-1
1.7126667E-1
6.4325297E-1
2.8741926E-1
6.29755E-1
7.7550334E-1
4.655102E-1
2.6857206E-1
2.657163E-1
2.2681811E-1
4.5381698E-1
5.4265296E-1
9.8470527E-1
3.2077873E-1
8.3853537E-1
3.9049414E-1
2.745093E-1
4.690366E-1
1.02734275E-1
7.0511E-1
7.2010726E-1
6.753141E-1
1.5267761E-1
6.465911E-1
1.6908869E-1
5.943025E-1
4.5561996E-1
3.5997324E-2
2.9240203E-1
9.917098E-1
7.256608E-1
3.4696195E-1
3.449112E-2
5.146444E-1
5.134243E-1
3.0228654E-1
7.9837567E-1
5.0704247E-1
1.3543895E-1
4.535397E-2
4.744067E-1
2.855301E-1
3.322849E-1
2.313929E-1
9.776579E-1
2.1985589E-1
1.7247483E-1
2.7423626E-1
3.4869948E-1
2.073207E-1
7.657763E-1
5.010539E-1
1.5088797E-1
1.9394307E-1
8.749283E-1
2.208662E-1
3.8236564E-1
9.905639E-1
2.9772288E-1
2.829182E-1
1.2354887E-2
4.3428004E-1
9.2648685E-1
7.999824E-2
7.680249E-1
4.5332895E-4
6.309098E-1
6.882046E-1
3.054607E-1
3.8828084E-1
1.2901369E-1
9.826714E-2
8.737048E-1
3.8470253E-2
9.403596E-1
9.4254756E-1
2.6774222E-1
2.1975513E-1
5.9905446E-1
6.8716836E-1
9.084718E-2
9.2902297E-1
8.8370335E-1
2.3905756E-1
5.142136E-1
5.827779E-1
1.3308653E-2
7.862542E-1
1.5360256E-1
4.8815885E-1
6.9223416E-1
6.3547623E-1
9.6357936E-1
4.22223E-1
6.5507364E-1
6.340636E-2
7.405695E-1
7.555139E-1
3.2010317E-1
5.510715E-1
5.837398E-1
7.654739E-1
8.42059E-1
8.8123304E-1
2.243533E-1
7.4828523E-1
1.3180538E-1
7.056316E-1
3.899418E-3
1.2005237E-1
2.877363E-1
9.236686E-1
1.1623862E-1
8.6674064E-1
4.3717355E-1
4.2209384E-1
9.5836633E-1
5.042447E-1
4.759046E-1
5.119785E-1
2.3470202E-1
9.575857E-1
4.007249E-1
6.3045806E-1
6.652988E-2
2.7725324E-2
9.774118E-1
8.211503E-1
2.0501369E-1
1.4492057E-1
9.789293E-1
3.257733E-1
4.6021616E-1
5.247237E-1
2.7074048E-1
9.9103147E-1
8.091863E-1
1.5181975E-1
4.9434546E-1
7.010115E-1
8.860018E-1
9.111232E-1
1.2656923E-1
2.1805902E-1
1.4007604E-1
9.7276795E-1
3.260543E-1
5.1846814E-1
1.308763E-2
8.690698E-1
7.6654184E-1
9.347544E-1
2.4006285E-1
5.7487166E-1
3.1337318E-1
8.769829E-1
7.60668E-2
5.85371E-1
1.8109353E-1
1.9398238E-1
6.5821844E-1
3.851105E-1
5.962174E-1
6.872238E-1
5.5676156E-1
9.027819E-1
3.0464542E-1
1.5242694E-1
4.2715684E-1
2.10307E-1
5.6267494E-1
1.0984131E-1
4.8612958E-1
5.940383E-1
4.3752104E-2
6.1943364E-1
8.947055E-1
4.2566806E-2
4.2799145E-1
1.140541E-1
6.75054E-1
6.8785524E-1
6.167004E-1
5.122649E-1
6.2963223E-1
1.9785148E-1
9.3601125E-1
6.4526165E-1
9.504951E-1
4.2963338E-1
6.306651E-1
9.779877E-1
7.5897455E-1
4.018923E-1
9.033139E-1
5.6856716E-1
4.101359E-1
2.4390212E-1
6.634969E-1
3.7828782E-1
9.58981E-1
3.361265E-1
2.9530082E-2
8.571485E-1
6.974764E-1
7.911445E-2
2.843223E-1
2.665554E-1
5.136083E-1
8.1905085E-1
4.959186E-1
6.011923E-1
6.532826E-1
6.6303444E-1
3.2070335E-2
2.9119223E-1
5.052948E-1
6.757176E-1
4.6321747E-1
5.241741E-1
7.846499E-1
5.9910446E-1
4.8385444E-1
1.9099969E-1
4.4767934E-1
4.374025E-1
5.072255E-1
9.766548E-1
8.3484924E-1
5.0869405E-1
1.2026745E-1
1.89514E-1
6.6705096E-1
1.2286365E-1
4.877005E-1
6.2831986E-1
1.3046642E-1
8.8642013E-1
9.9972904E-1
3.4932584E-1
7.2795415E-1
9.374062E-1
7.1627814E-1
3.2166164E-2
7.5395983E-3
9.029838E-1
8.463625E-1
1.5287977E-1
1.04893684E-1
9.3231493E-1
4.645505E-1
2.201945E-1
8.883087E-1
8.4993854E-2
8.5685194E-1
1.4357875E-1
1.8842984E-2
6.602047E-1
8.423571E-1
5.545066E-1
2.8021362E-1
3.0762506E-1
9.1141474E-1
4.0654388E-1
3.008549E-1
4.938149E-1
8.370652E-1
4.2552742E-1
2.1558383E-1
3.2178022E-2
1.3787729E-1
7.858075E-1
4.0381214E-1
4.41601E-1
7.6409996E-1
3.072893E-1
5.941935E-1
9.8604894E-1
3.2627797E-1
5.816152E-1
1.8208724E-1
4.0991837E-1
1.17485285E-1
2.0901892E-1
6.2793034E-1
8.1411284E-1
7.088005E-1
6.963846E-1
9.916424E-3
8.392401E-1
4.089261E-1
9.918498E-1
3.9518118E-1
5.194406E-1
7.5772625E-1
7.566763E-4
5.0660974E-1
1.2948836E-1
9.1940945E-1
6.6185176E-1
7.428262E-2
5.5642113E-2
5.6344444E-1
6.831881E-1
6.4666045E-1
9.0884155E-1
7.4542016E-2
8.517927E-1
3.5653046E-1
9.013315E-1
8.581337E-1
8.8956743E-1
5.166214E-1
3.6000445E-1
6.622159E-1
4.6721318E-1
9.656117E-1
9.875302E-2
4.8593774E-1
4.9982902E-1
2.3938037E-1
9.245328E-1
6.1491686E-1
3.9415422E-1
2.5114265E-1
5.6443715E-1
4.8503652E-1
1.9635989E-1
9.443787E-1
3.5721266E-1
5.471945E-1
2.3744948E-1
1.9541466E-1
6.3880634E-1
7.400967E-1
6.208925E-1
3.0043387E-1
2.6813263E-1
2.545243E-1
7.941997E-1
4.0044022E-1
8.27075E-1
8.180531E-1
9.376567E-1
3.095242E-2
5.470106E-1
8.2771504E-1
6.501256E-1
3.6182287E-1
4.6389267E-2
9.8918855E-1
7.1995723E-1
2.5401652E-1
1.4143234E-1
9.248038E-1
8.2835156E-1
7.398143E-1
3.4703213E-1
8.7089676E-1
9.311675E-1
1.7510498E-1
9.443159E-1
4.531099E-1
9.791951E-1
3.1636548E-1
8.7832505E-1
4.8938248E-1
8.5896075E-1
4.502052E-1
5.7565945E-1
3.852684E-1
8.3736485E-1
4.782532E-1
3.6586872E-1
3.431514E-1
1.6906694E-2
5.260947E-1
3.2663605E-1
2.2112876E-1
3.2806936E-1
9.836006E-1
8.9987624E-1
8.7323236E-1
2.8058892E-1
2.71866E-1
1.1062106E-1
6.6060084E-1
4.5003062E-1
2.2061116E-1
3.5498768E-1
2.9442856E-1
8.8370293E-1
8.872844E-1
1.0426977E-1
3.538536E-1
1.4810751E-1
8.1951493E-1
9.792132E-1
9.6855813E-1
7.3916966E-1
7.444338E-1
4.5094597E-1
3.9048567E-1
8.153327E-1
4.7896194E-1
2.4031588E-1
3.6481965E-2
3.787394E-1
4.239565E-1
8.968039E-1
8.47981E-1
8.541741E-1
9.470753E-1
7.749955E-1
5.6646574E-1
3.3950314E-1
5.187484E-1
1.2243341E-1
4.059376E-1
6.3484395E-1
3.9163744E-1
6.366592E-1
1.4887791E-2
8.363792E-1
5.9006214E-1
4.4147444E-1
9.196729E-1
8.555594E-1
3.572041E-1
5.968177E-1
3.0787113E-1
7.552506E-1
3.7729103E-2
8.978837E-1
3.9370414E-2
7.49955E-1
8.093572E-1
4.159078E-2
6.688845E-1
4.445515E-1
5.38014E-1
2.7058512E-1
3.506156E-1
7.0079124E-1
8.750119E-1
8.0260116E-1
7.495397E-1
8.7121093E-1
5.901912E-1
3.720779E-2
7.663021E-2
6.857379E-2
1.7693663E-1
3.439355E-1
1.2742661E-1
2.780085E-1
1.568909E-1
2.2025368E-1
2.6021367E-1
3.3420116E-1
5.4061127E-1
5.9392023E-1
9.7347116E-1
1.0165754E-2
7.6706946E-1
5.123153E-1
1.07102945E-1
4.6588445E-1
6.956344E-1
3.6379293E-1
7.072723E-1
5.6505775E-1
8.4781617E-1
5.8477014E-1
8.702354E-1
9.640397E-1
3.365188E-1
6.3083476E-1
5.323161E-1
8.4331906E-1
3.5578364E-1
2.2995175E-1
1.040044E-1
6.2085146E-1
3.9419687E-1
6.057909E-1
4.9364603E-1
7.4636E-1
4.2946078E-2
1.1200782E-1
5.1731133E-1
7.537921E-1
5.1824266E-1
6.041228E-1
3.501036E-1
2.4724165E-1
9.00148E-1
2.504929E-1
1.6054398E-1
7.423584E-2
7.314585E-2
3.6694643E-1
1.9427785E-1
7.0605975E-1
4.3486953E-1
6.81598E-2
3.8333964E-1
2.3788244E-1
4.6411312E-1
4.4256118E-1
6.805643E-1
5.721189E-1
2.2552465E-1
2.1672295E-1
8.0741525E-1
9.090422E-2
4.2419222E-1
8.952311E-1
5.5636877E-1
7.3120797E-1
2.6266465E-1
3.272501E-1
5.507164E-1
9.178701E-1
1.5765126E-1
6.845836E-1
8.67382E-1
9.844055E-1
5.6500584E-2
6.438723E-1
6.6195124E-1
4.0038365E-1
3.8945478E-1
5.915864E-1
5.376935E-1
6.396576E-1
1.18236125E-1
5.58978E-1
9.123961E-1
6.9151366E-1
2.2598472E-1
7.537578E-1
8.498991E-1
9.742881E-1
5.4036254E-1
9.103065E-1
7.6887506E-1
6.9762975E-1
7.952838E-1
5.885548E-1
9.576124E-1
2.507158E-1
9.119968E-1
3.5412377E-1
6.484513E-1
1.24481484E-1
7.926994E-1
1.2313792E-1
8.045752E-3
2.1652801E-1
2.9745814E-1
4.7241634E-1
4.2239282E-1
8.628287E-1
6.8312407E-1
4.1197357E-3
8.89063E-2
2.576656E-1
5.506465E-1
2.0343982E-2
6.0936487E-1
4.2123368E-1
6.570192E-1
6.978022E-2
4.2498627E-1
5.827971E-1
9.1327757E-1
6.2988573E-1
1.5222031E-1
9.588696E-1
2.9038808E-1
8.0710876E-1
1.147967E-1
9.982814E-1
4.5183423E-1
2.0378627E-1
1.1524913E-1
7.1759486E-1
8.681296E-1
3.889878E-2
4.200076E-1
6.559925E-1
1.4166689E-1
5.581121E-2
4.1771927E-1
9.87872E-1
2.776051E-1
5.750428E-1
3.5744146E-1
3.744463E-1
6.962936E-1
9.2358327E-1
2.2032116E-2
4.7992724E-1
3.9010003E-1
3.3400843E-1
4.066015E-1
3.8540795E-1
9.2617355E-2
2.1198456E-1
1.1999199E-1
1.6730374E-1
2.427095E-1
7.392441E-1
5.931361E-1
1.2098867E-1
5.135709E-1
4.6210268E-1
4.1028184E-1
1.1034068E-1
5.491215E-1
9.07672E-1
9.7030336E-1
6.265331E-1
1.7546748E-1
2.3367062E-1
9.290557E-1
5.0583744E-1
6.385999E-1
6.206008E-1
4.249835E-1
3.7934622E-1
2.711121E-1
7.714377E-1
9.327675E-1
7.828718E-1
6.175117E-1
9.1480625E-1
1.17647514E-1
4.5979837E-1
1.1937966E-1
2.0439996E-1
8.7160474E-1
9.1221553E-1
5.925251E-1
7.244517E-1
3.9223033E-1
1.8173492E-1
5.1764923E-1
5.7411605E-1
8.795414E-1
8.933857E-1
1.7935608E-2
8.3267415E-1
5.359869E-1
3.7288405E-2
5.7879174E-1
5.3826284E-1
7.3663276E-1
2.0276006E-2
4.4610578E-1
3.3269432E-1
9.126181E-1
2.7109402E-1
2.690203E-1
2.3054086E-1
3.7224457E-1
7.3862004E-1
3.88201E-1
3.5451984E-1
3.53429E-1
3.1907415E-1
3.929068E-1
4.3031147E-1
3.680515E-1
2.8425443E-1
7.8702223E-1
3.3951768E-1
5.4400724E-1
8.5259545E-1
6.3646024E-1
6.082294E-1
8.1466883E-1
3.9023465E-1
2.9045436E-1
9.745293E-1
8.138918E-1
5.6638944E-1
7.977319E-1
3.9753816E-1
5.734664E-1
8.335661E-1
3.991977E-2
5.9406084E-1
7.3883635E-1
9.7600573E-1
9.108238E-2
8.4647256E-1
3.6929655E-1
7.3292106E-1
1.7007218E-1
7.3556507E-1
8.965783E-1
9.2557347E-1
5.9491503E-1
1.22954965E-1
4.2352152E-1
4.12977E-1
1.05017096E-1
3.0366418E-1
9.214521E-1
9.133467E-1
7.9542357E-1
5.804691E-1
2.6830542E-1
6.809767E-1
3.71991E-1
2.6583058E-1
2.9536493E-2
2.6401084E-2
7.9089075E-1
5.513337E-1
6.37448E-1
5.7192004E-1
8.7163603E-1
7.5827736E-1
1.1709542E-1
1.6593106E-1
6.138773E-1
9.7555056E-2
8.2789654E-1
1.7252559E-2
3.6775616E-1
1.9575803E-1
4.608014E-1
9.16706E-1
2.122869E-1
6.7811495E-1
1.1381047E-1
3.312205E-1
9.456254E-1
6.131249E-1
8.12E-1
5.974216E-1
8.020063E-1
2.9168805E-1
1.3035312E-1
9.9822646E-1
8.10642E-4
2.3684864E-1
8.5398656E-1
2.6264796E-1
6.07511E-1
5.6159294E-1
1.6986251E-1
7.475091E-1
3.5738865E-1
3.059037E-1
5.830054E-1
9.0101904E-1
8.781846E-1
8.529745E-1
7.560639E-1
4.9449927E-1
2.3511861E-1
8.253133E-1
7.957926E-2
5.488853E-1
9.736328E-1
7.1862495E-1
4.3041354E-1
2.1553752E-1
3.259804E-2
9.574346E-1
8.377759E-2
8.979765E-1
2.574931E-1
1.2685438E-1
6.071893E-1
4.750965E-1
1.386151E-1
3.5999054E-1
5.7278603E-1
2.4504767E-1
2.241536E-2
7.193625E-1
7.1679756E-2
3.299281E-1
9.41031E-1
6.966745E-1
8.970741E-2
8.174872E-1
7.200454E-1
4.338239E-1
4.8355567E-1
6.0736203E-1
2.2845785E-1
1.3568473E-1
7.4615616E-1
3.2205768E-2
8.8153166E-1
6.8299866E-1
6.054783E-1
5.272005E-1
2.504362E-1
2.9372287E-1
1.5630086E-1
3.2904002E-1
2.6358962E-1
7.829957E-1
5.1226098E-2
1.3998707E-1
2.2744313E-1
5.976385E-1
1.7999142E-1
6.960038E-1
7.5100607E-1
7.025472E-1
1.2819311E-1
9.175788E-1
6.813043E-1
4.5431188E-1
1.3269857E-1
5.7214254E-1
2.1361828E-1
2.3913416E-1
9.4256395E-1
4.015657E-1
4.079151E-1
7.9068273E-1
2.0315166E-1
3.7577277E-1
5.057127E-1
7.509495E-1
9.8535216E-1
5.2225065E-1
3.435494E-1
8.4354943E-1
7.295988E-1
9.410838E-3
7.930778E-1
2.5848737E-1
3.768001E-1
5.9166502E-2
3.8554946E-1
9.176013E-1
5.951893E-1
6.207335E-1
5.312284E-1
2.248527E-1
7.857979E-1
7.771634E-1
6.426273E-1
9.5471674E-1
2.4284351E-1
2.7090743E-1
4.5922768E-1
8.274136E-1
6.7745936E-1
6.654125E-1
9.5153403E-1
8.276672E-1
8.596357E-1
2.1518937E-1
4.9114805E-1
1.6342785E-2
5.063987E-1
1.8737018E-1
8.9367074E-1
2.6542088E-1
5.954262E-1
5.263883E-1
7.9276776E-1
8.7168187E-1
1.3306268E-1
6.098578E-1
9.8123485E-1
4.37022E-1
4.2554432E-1
5.488678E-1
2.618596E-1
6.4569885E-1
3.2916573E-1
4.007737E-1
7.5436875E-2
9.685E-1
3.6503488E-1
5.9467673E-1
5.8249927E-1
2.4226211E-1
4.929522E-1
5.142828E-1
7.064877E-2
2.570092E-1
4.2920175E-1
2.0361754E-1
1.6754875E-1
7.4002904E-1
8.149393E-1
4.4974822E-1
1.18980415E-1
5.0340754E-1
1.8445337E-1
1.8283797E-2
5.7230246E-1
2.4412844E-1
7.241475E-1
7.055417E-2
7.156028E-1
9.23781E-1
7.724551E-1
1.388812E-1
8.2667154E-1
5.837549E-1
6.3943255E-1
6.065636E-1
6.331547E-1
3.777179E-1
6.3027537E-1
8.091752E-2
8.931448E-1
6.072038E-1
9.932893E-1
7.059937E-1
9.300841E-1
6.389069E-1
4.4615725E-1
6.322002E-1
9.3180436E-1
4.9717548E-1
7.1076614E-1
3.432135E-1
9.555769E-1
1.06719665E-1
7.900058E-1
3.025675E-1
6.5795064E-1
7.5981504E-1
6.494007E-1
3.620816E-1
3.2100868E-1
7.970406E-1
4.281114E-1
9.0006036E-1
4.5349422E-1
7.7892774E-1
9.2221004E-1
3.3435318E-1
1.737317E-1
5.927413E-1
9.0346646E-1
1.8782793E-2
7.0890076E-3
2.1832635E-1
6.167647E-1
4.151907E-2
9.007739E-1
8.075071E-2
3.8247904E-1
2.4267071E-1
4.9543557E-1
4.8156133E-1
5.864373E-1
6.363158E-1
6.875997E-1
2.327834E-1
4.2908362E-1
8.7015694E-1
7.159865E-1
9.4973826E-1
3.841861E-1
6.896856E-1
6.256727E-3
6.361579E-3
6.1934926E-3
2.7256277E-1
3.296884E-1
4.0834925E-1
3.3821738E-1
3.686608E-1
6.559956E-1
2.841554E-1
3.7951472E-1
7.5179026E-2
9.4804025E-1
1.921878E-2
6.753626E-1
4.5312443E-1
3.7597018E-1
1.08686335E-1
6.8070835E-1
7.385863E-1
9.7635E-1
4.5725474E-1
9.1317706E-2
5.973457E-2
3.2549125E-1
5.587362E-1
5.1869094E-1
7.9017675E-1
4.782446E-2
7.259966E-1
8.464712E-1
5.456116E-1
5.870413E-1
5.6617886E-1
3.0246144E-2
6.2655103E-1
2.1159375E-1
4.9644184E-1
4.480087E-1
1.364414E-1
7.301357E-1
7.914189E-2
5.781841E-1
5.7181543E-1
1.2011103E-1
9.34337E-1
2.547574E-1
2.1173012E-1
1.5836544E-1
7.922377E-1
3.0771136E-1
2.8151584E-1
9.18315E-1
3.787041E-1
5.621946E-1
2.5814617E-1
3.2834405E-1
6.71901E-1
9.1866404E-1
8.759818E-1
6.344039E-1
9.170039E-1
6.213505E-1
2.8681105E-1
8.617299E-2
7.823804E-1
6.2413275E-1
5.635586E-2
9.5824295E-1
2.1469917E-2
9.0558076E-1
7.1576744E-2
9.672177E-1
2.5755155E-1
5.3020006E-1
1.621943E-1
8.6679584E-1
6.075008E-1
6.780533E-1
9.8729765E-1
1.1984738E-1
2.1086833E-1
9.96552E-1
6.512169E-1
2.4896659E-1
1.1730157E-1
8.675006E-3
4.7906673E-1
2.0532846E-1
9.039456E-1
5.9739995E-1
9.663379E-1
3.670485E-1
3.9854264E-1
5.158021E-1
7.8367245E-1
8.746546E-1
7.516719E-1
3.0850956E-1
4.6309108E-1
3.2270464E-1
9.1333044E-1
2.1767604E-1
8.235903E-1
2.4863036E-2
6.4072233E-1
9.790251E-1
5.734755E-1
2.444438E-1
6.3574076E-1
3.4383744E-1
2.0019595E-1
6.8584025E-1
9.4224477E-1
8.5880965E-1
5.291574E-1
8.0028796E-1
9.665684E-1
4.2595807E-1
3.6146387E-1
4.161387E-1
7.939875E-1
7.452733E-1
9.864309E-1
5.225326E-1
2.977512E-1
6.1995405E-1
7.7598226E-1
4.0025238E-2
5.477158E-1
8.471842E-2
9.1817063E-1
5.0375986E-1
5.952684E-1
4.4933572E-1
5.082064E-1
9.542477E-1
7.682687E-1
7.906258E-1
4.4322056E-1
1.4763409E-1
7.6661026E-1
9.424183E-1
5.4891115E-1
9.7996694E-1
7.3467296E-1
6.020275E-1
6.6406536E-1
5.648739E-1
7.2052515E-1
5.4709077E-1
5.358122E-1
7.8778154E-1
2.132809E-1
6.213779E-1
2.0965959E-1
6.331692E-1
4.7368094E-2
4.7401693E-2
8.4380645E-1
9.798348E-2
9.9151486E-1
7.182798E-1
3.2340032E-1
2.3347165E-1
9.0983737E-1
1.8588237E-1
7.3299044E-1
4.189741E-2
5.961434E-1
1.0518855E-1
7.579604E-1
4.020411E-1
2.6180568E-1
8.459473E-2
1.7639674E-1
8.375122E-1
2.7366224E-1
4.040819E-1
2.9543537E-1
8.197166E-1
3.045476E-1
1.5713288E-1
3.3775145E-1
8.194361E-1
1.1543135E-1
6.209066E-1
8.839396E-1
4.5357233E-1
4.0789628E-1
1.1915383E-1
8.928378E-1
2.1657822E-1
5.2121717E-1
7.7751803E-1
5.923078E-1
5.640491E-1
9.4757193E-1
8.6479163E-1
4.4204605E-1
6.136215E-1
7.070739E-1
7.11868E-1
5.059583E-1
4.1324773E-1
9.9397314E-1
2.068279E-1
7.0146143E-1
9.640947E-1
7.8787625E-2
6.5521836E-1
6.692674E-1
1.0771964E-1
8.5382605E-1
1.8680173E-1
1.05763115E-1
8.4341876E-2
2.7607337E-1
8.033994E-1
7.732311E-1
1.7834863E-1
6.105602E-1
2.0034792E-1
6.991089E-3
8.1136113E-1
2.8287628E-1
4.980971E-1
1.2716892E-1
3.2598194E-1
7.2626567E-1
1.8900536E-2
6.6609494E-3
2.598773E-1
1.2972507E-1
6.02972E-1
5.0588226E-1
8.975661E-1
6.6172826E-1
4.4350114E-1
6.822416E-1
3.444657E-1
3.3182707E-1
9.7313595E-1
5.884078E-2
6.85921E-2
6.7583716E-1
2.830126E-1
5.628822E-1
6.3817114E-1
8.667821E-1
4.3184224E-1
1.9316205E-1
9.38034E-1
8.4038055E-1
5.521964E-1
6.607111E-1
5.074613E-1
6.781219E-1
5.954341E-1
5.952269E-1
2.773226E-1
9.6419305E-1
4.2698792E-1
1.24809146E-1
2.6960847E-1
6.244806E-1
6.6884226E-1
7.404453E-1
2.7979693E-1
7.5910795E-1
7.4173653E-1
2.2463384E-1
2.8788084E-1
7.144561E-1
3.5864997E-1
8.1729597E-1
6.530261E-1
8.784706E-1
2.743704E-1
5.103559E-2
4.757391E-2
5.585328E-1
7.543507E-1
7.306645E-1
3.608448E-1
1.8894592E-1
2.2592531E-1
6.3676673E-1
8.5834086E-1
6.579164E-1
7.538942E-1
6.7719555E-1
6.7739195E-1
1.0953623E-1
8.6245775E-1
4.4298986E-1
5.8223918E-2
1.2927088E-1
6.7884374E-1
7.991129E-1
3.5477288E-2
9.7788656E-1
9.3823975E-1
3.5212597E-1
8.873359E-1
2.991784E-1
6.138469E-2
2.2189657E-1
8.995305E-1
8.256358E-1
1.08861685E-1
3.6329535E-1
5.646972E-1
6.277279E-1
4.9684454E-2
9.327326E-1
5.632374E-1
4.170791E-2
6.9623965E-1
9.2550856E-1
7.4777216E-1
8.897419E-1
9.830283E-1
9.564918E-1
3.6889452E-1
6.684158E-1
5.0406754E-1
3.2399703E-2
1.4760011E-1
3.2829776E-1
5.3010607E-1
1.3950828E-1
9.3012667E-1
4.5326397E-1
4.6264887E-2
7.466324E-1
2.340801E-1
8.7723535E-1
7.39203E-1
3.204234E-1
8.696032E-1
2.6499313E-1
6.054844E-1
2.2586627E-1
3.1285828E-1
5.9990484E-1
8.062179E-1
2.0711648E-3
8.603926E-1
3.412981E-1
6.055175E-1
9.539754E-1
4.0458445E-2
7.5010306E-1
6.0358787E-1
2.0290662E-1
6.519776E-1
1.238415E-1
6.503442E-1
1.281855E-1
7.886206E-1
3.1149235E-1
1.4277455E-1
2.7141124E-1
1.7597762E-1
4.4601288E-1
8.426285E-1
6.1571723E-1
7.7144915E-1
6.317629E-1
8.175345E-1
6.3255644E-1
6.565853E-1
3.5171076E-3
1.2501433E-1
9.4696337E-1
8.205212E-1
1.2194382E-1
7.8293353E-1
2.7098864E-1
3.7056077E-1
4.6191987E-1
9.547639E-1
5.237616E-2
6.019291E-1
1.4368115E-1
5.509573E-1
2.8541973E-1
8.2074654E-1
8.4161234E-1
1.1646163E-1
3.3513376E-1
3.7538752E-1
2.8629452E-1
9.264805E-1
1.4824516E-1
8.619836E-1
3.4433186E-1
8.1643885E-1
3.1852305E-1
4.8889735E-1
8.4483016E-1
7.027068E-1
1.0304797E-1
6.699738E-1
8.227753E-1
1.5394942E-1
8.962052E-1
1.6863054E-1
9.368226E-2
7.5901335E-1
3.6745983E-1
4.612224E-2
1.12762794E-1
4.430314E-1
2.6715672E-1
1.4402805E-1
8.4796E-1
3.535409E-1
9.388807E-2
8.7721044E-1
3.6073275E-2
7.042796E-1
7.446364E-1
6.9423765E-1
4.199277E-1
9.6309835E-1
7.7559584E-1
9.8115516E-1
7.113407E-1
9.926818E-1
1.5761714E-1
1.247016E-1
5.309022E-1
1.8376173E-2
5.376269E-1
9.8065245E-1
6.8074715E-1
2.7456075E-1
6.743997E-1
2.7177036E-1
5.885501E-1
3.508687E-1
1.1513192E-1
6.290297E-1
7.8506017E-1
1.6124587E-1
9.2356807E-1
3.2406366E-1
4.9871707E-1
1.13999054E-1
2.295811E-1
8.9505744E-1
2.7890071E-2
9.62682E-1
9.1806275E-1
8.7715244E-1
7.2814566E-1
1.16563424E-1
5.617499E-1
4.133954E-1
7.702703E-1
7.615884E-1
7.4590987E-1
7.4835074E-1
5.5932596E-2
2.2194728E-1
3.2850462E-1
2.6849008E-1
8.737768E-2
4.6463823E-1
3.766412E-1
2.874127E-1
9.678313E-1
4.1274896E-1
4.397866E-1
5.543138E-1
1.297922E-1
9.9524003E-1
2.604927E-1
9.6030074E-1
4.852316E-1
6.691933E-1
9.040366E-1
2.4260901E-1
7.455451E-1
9.261687E-3
3.1575555E-1
5.2988845E-1
8.267132E-1
7.97654E-1
2.1936072E-1
2.3815212E-1
3.3008818E-2
5.21132E-2
7.555925E-1
7.644877E-1
1.8940291E-1
9.9507797E-1
4.5587136E-3
6.9504905E-1
1.7359531E-1
7.9759985E-1
1.5143254E-1
3.504781E-1
3.000939E-1
7.2076224E-2
7.7143615E-1
6.28674E-1
1.02331E-1
2.7508326E-2
3.1916776E-1
7.431195E-1
6.880525E-1
6.9262546E-1
8.185911E-1
1.836424E-1
1.7956218E-1
4.758522E-1
1.6029704E-1
3.7211373E-1
7.555607E-1
7.682262E-1
5.4269147E-1
2.3682016E-1
4.552013E-1
3.9531705E-1
7.456273E-1
7.6233476E-1
4.6756417E-1
7.7420545E-1
3.4059057E-1
9.077866E-1
6.462394E-1
4.087717E-1
2.4753037E-1
8.333988E-1
5.8323956E-1
8.3165187E-1
5.2764815E-1
3.9365146E-1
9.425274E-1
6.86688E-2
6.745707E-1
8.3142954E-1
5.376492E-1
9.28687E-1
6.794075E-1
2.4199319E-1
5.018966E-1
7.8735304E-1
2.9667652E-1
7.98023E-1
5.820366E-1
6.7771703E-1
1.06300265E-1
8.773172E-1
9.665404E-1
4.24077E-1
9.856556E-1
5.6981736E-1
2.9660153E-1
6.940906E-1
5.027734E-1
6.528762E-1
7.976838E-1
9.5215845E-1
8.3856285E-1
5.9155554E-1
9.2851466E-1
5.753925E-1
9.006427E-1
7.979581E-2
5.372278E-1
8.067464E-1
6.0399073E-1
6.5940136E-1
9.2199504E-1
4.251543E-1
6.94974E-1
6.176791E-1
6.3365126E-1
6.216177E-1
1.9430527E-1
3.2091182E-1
5.271103E-1
9.956675E-2
9.6025413E-1
3.392464E-1
1.3855552E-2
7.46987E-1
9.88822E-1
8.813742E-1
3.0308085E-2
9.2051154E-1
2.2605135E-1
8.614333E-1
2.3542869E-1
9.101705E-2
9.5412505E-1
6.277771E-1
8.383211E-1
2.7879488E-1
8.676085E-2
8.1043553E-1
2.1258438E-1
5.903828E-1
5.1054466E-1
7.202931E-1
9.405863E-1
4.780654E-1
6.938451E-1
7.7960354E-1
8.122681E-1
5.5407417E-1
1.6694877E-2
8.4311414E-1
3.317295E-1
1.3903357E-1
3.7835878E-1
9.886439E-1
8.056038E-3
2.15877E-1
8.959959E-2
5.55754E-1
7.631132E-1
6.042224E-1
9.132131E-1
8.125077E-1
1.311878E-1
6.38674E-2
9.030008E-1
1.5103412E-1
5.7529646E-1
1.3087048E-1
7.296579E-1
6.335442E-3
7.626109E-2
3.257307E-1
5.223139E-1
2.0741805E-1
7.1924037E-1
5.5861455E-1
1.7551787E-1
5.9045213E-1
7.9079276E-1
8.8794696E-1
8.0492264E-1
8.308538E-1
3.9276946E-1
1.7027411E-1
9.644693E-1
3.660667E-1
6.218376E-1
6.123406E-1
6.1186904E-1
8.150728E-2
4.9032247E-1
3.833976E-1
6.531679E-1
3.4619886E-1
2.1153814E-1
8.6226153E-1
6.738474E-1
9.1904974E-1
1.8903518E-1
2.64356E-1
4.4101304E-1
6.604423E-1
2.4615202E-2
9.332645E-1
5.1981026E-1
4.5218462E-1
5.1609266E-1
4.3803996E-1
8.9188224E-1
4.6540394E-1
1.1290254E-3
8.3607244E-1
1.0169335E-1
7.043464E-1
6.638592E-2
6.925152E-1
7.0307857E-1
1.7141078E-1
6.817571E-1
7.649719E-1
6.356345E-1
7.4920624E-1
6.6549456E-1
8.2930064E-1
8.779399E-1
8.233632E-1
1.6371939E-1
6.5555686E-1
1.7666735E-1
3.3226123E-1
1.6766362E-2
2.636475E-1
6.6208595E-1
6.4349405E-2
7.786963E-1
4.2944E-1
6.5646815E-1
8.117562E-2
5.2204156E-1
2.1506375E-1
8.431282E-1
3.8536465E-1
3.4898612E-1
9.272889E-1
4.294407E-1
3.932466E-1
9.4840175E-1
4.4190678E-1
3.13651E-1
6.993893E-1
9.85966E-1
2.3681298E-1
5.3329533E-1
8.8424265E-1
8.758322E-1
7.4243194E-1
5.933432E-1
8.3748287E-1
5.0923055E-1
5.6472003E-1
2.2575608E-1
2.614516E-1
4.154871E-1
1.9797078E-1
6.4420307E-1
7.59065E-1
9.721489E-1
2.2592564E-1
8.862764E-1
8.7267745E-1
9.231671E-2
1.549471E-1
3.1721675E-1
5.8603954E-1
5.478747E-1
7.0866096E-1
2.6777446E-1
5.5523884E-1
3.186209E-1
3.5638043E-1
4.8845905E-1
7.091995E-1
6.669017E-2
2.7698404E-1
1.2969887E-1
3.118155E-1
2.1975584E-1
9.3147025E-2
7.6763546E-1
7.191468E-1
9.8286915E-1
2.0647047E-1
7.0032984E-1
7.472034E-2
8.240281E-2
1.6144735E-1
6.8400395E-1
4.3201295E-1
9.2278713E-1
3.924633E-1
3.107884E-1
3.301876E-2
9.3288285E-1
2.8566956E-3
6.2531936E-1
4.0126505E-1
1.2788756E-1
3.6204326E-1
6.87684E-1
6.270721E-1
9.8718655E-1
7.041739E-1
3.8444495E-1
1.4139733E-2
4.2971712E-1
8.3166146E-1
9.157254E-1
4.2212918E-1
4.1624665E-2
2.5879803E-1
7.1168685E-1
9.7547555E-1
8.654352E-1
6.294331E-2
5.1665676E-1
9.177987E-1
1.7461725E-1
1.2683567E-1
5.524503E-1
3.3317357E-1
4.9358505E-1
6.5650445E-1
2.1748257E-1
7.1453863E-1
4.5407775E-1
3.8300127E-1
7.921885E-1
9.830408E-1
9.57889E-1
3.9427805E-1
8.578306E-1
6.519416E-2
8.0113596E-1
7.2828174E-1
4.9426317E-1
2.891455E-1
8.44068E-1
1.3993491E-1
5.884639E-1
9.926113E-2
1.6611734E-2
7.320119E-1
6.2644136E-1
6.789497E-1
8.559449E-1
8.4459E-1
1.718203E-1
3.7679172E-1
3.5287356E-1
4.471198E-1
8.5647565E-1
7.4485654E-1
7.3689955E-1
8.967017E-1
9.253712E-1
7.877734E-1
7.8009576E-1
2.1602185E-1
7.295714E-1
4.3520325E-1
1.7520002E-1
8.4533614E-1
9.511523E-1
3.5296237E-1
9.922963E-1
3.1762976E-2
2.1923731E-1
7.400919E-1
6.8525803E-1
5.364019E-1
9.649314E-1
5.0293766E-2
4.8279792E-1
2.7110916E-1
1.2374525E-1
5.0044465E-1
3.8925913E-1
9.232436E-1
1.0644707E-1
1.6658595E-1
4.966638E-1
2.8797632E-1
6.08319E-1
8.9328456E-1
3.5627475E-1
1.5560392E-1
3.6330894E-1
4.2415887E-1
1.14810094E-1
1.349889E-1
9.684512E-1
6.8038493E-1
7.8778577E-1
2.6277028E-2
3.188845E-1
1.8031356E-1
3.1057175E-2
8.9425904E-1
1.6178818E-1
4.8927093E-1
7.1137595E-1
7.877054E-1
8.803232E-1
4.8442462E-1
1.1791939E-1
7.8307486E-1
5.6266636E-1
7.9804087E-1
2.8716522E-1
7.9989773E-1
2.713376E-1
6.866664E-1
4.433118E-2
2.834361E-1
9.015981E-2
4.6912055E-2
8.9318466E-1
5.840568E-2
3.6670774E-1
7.514835E-1
5.750148E-1
4.70785E-1
3.1894198E-1
4.672414E-1
1.9922686E-1
8.704883E-1
5.850831E-1
6.3910043E-1
7.942617E-1
1.6897762E-1
9.7512823E-1
1.4722496E-1
6.028042E-1
8.022011E-1
9.3803555E-1
6.6167235E-1
7.8321797E-1
4.2392394E-1
3.8491872E-1
5.76654E-1
3.9849913E-1
6.946779E-2
9.295741E-1
5.7323165E-2
4.0683117E-2
1.35579E-1
8.6737365E-1
3.970485E-1
3.6048236E-1
4.1964438E-2
7.916496E-1
1.3523173E-1
6.3191205E-1
6.6669405E-1
1.7038724E-1
1.7443487E-1
2.1770163E-1
8.7882704E-1
9.110931E-1
6.901331E-2
1.2570335E-1
4.8616284E-1
6.157264E-1
1.5614635E-1
2.1077746E-1
6.338839E-1
4.7974402E-1
2.0311998E-1
1.2102669E-1
7.463933E-1
1.545512E-1
3.7528822E-1
1.3406348E-1
7.3684555E-1
5.8871424E-1
4.9795386E-1
2.8353164E-1
3.7880698E-1
4.7036004E-1
8.378773E-1
3.4752452E-1
1.8007764E-1
4.0801436E-1
4.6082368E-1
2.9574904E-1
4.4341257E-1
4.4755414E-1
1.3555071E-3
9.373583E-1
9.8295057E-1
4.9504414E-1
5.673159E-1
3.22774E-1
5.653754E-1
7.069641E-1
1.2572855E-1
6.521455E-3
8.738672E-1
1.3123582E-1
4.0483907E-1
9.791849E-1
3.6231745E-2
8.3900964E-1
2.2049777E-1
1.4714009E-1
4.1267478E-1
8.442832E-1
4.8760018E-1
1.2481906E-1
3.8069317E-1
4.2087388E-1
7.698893E-1
6.39546E-1
3.480118E-1
2.7978474E-1
8.8401717E-1
3.5714504E-1
4.9887747E-1
8.5086954E-1
9.374267E-1
9.531376E-2
5.3201765E-2
7.000751E-1
8.061165E-1
7.6654047E-1
5.8422136E-1
9.5452833E-1
9.115756E-1
1.9872357E-1
9.180429E-1
8.783806E-1
5.677639E-1
9.797442E-1
5.7123695E-3
3.4665066E-1
6.946638E-1
5.1946896E-1
4.4316575E-1
9.1955596E-1
7.51961E-1
8.1491184E-1
7.4558485E-1
3.8889638E-1
6.110245E-1
7.894693E-1
7.06518E-1
1.8885158E-1
6.9820184E-1
2.3783635E-1
7.6439756E-1
7.2166264E-1
1.2781128E-2
3.7216684E-1
4.0855205E-1
8.618101E-1
9.2138715E-2
8.209142E-1
2.8492758E-1
3.0438402E-1
9.102235E-1
9.034166E-1
6.575691E-1
4.7131222E-1
7.493898E-1
9.150213E-1
1.3964532E-1
7.736467E-1
6.646919E-1
1.3128625E-2
4.3674356E-1
7.3445755E-1
8.012742E-1
8.1114456E-2
6.374992E-1
9.564561E-1
5.579785E-1
2.2195447E-2
2.838573E-1
4.3685648E-1
4.2150182E-1
7.9823744E-1
8.670367E-1
7.547411E-1
8.2027555E-1
2.1065855E-2
3.517762E-1
8.6853194E-1
3.102376E-1
7.163462E-1
5.536752E-1
8.17652E-1
7.4649674E-1
2.2861801E-1
1.2784223E-2
8.718019E-1
1.7169839E-1
3.1710687E-1
9.9008584E-1
6.722941E-2
8.1182224E-1
8.4539926E-1
5.66625E-1
8.059764E-1
1.0107596E-1
6.6439855E-1
6.9244355E-1
9.7544885E-1
6.634966E-1
9.5787084E-1
8.271279E-1
2.230448E-1
4.4346943E-1
9.3784535E-1
7.8922534E-1
9.7927235E-2
6.5269727E-1
8.3125925E-1
8.2122624E-1
2.5438663E-1
9.3085957E-1
7.5382614E-1
1.1087634E-1
6.5570265E-1
9.220602E-1
4.6692052E-1
4.30104E-1
6.551945E-1
5.471257E-1
6.157852E-1
2.4030149E-1
3.3690605E-1
5.183088E-1
3.970555E-1
3.524535E-2
7.102172E-1
7.949451E-1
1.3984737E-3
1.0184858E-1
8.7862366E-1
9.0851045E-1
5.0958075E-2
7.501269E-1
8.987948E-2
7.542259E-1
8.010976E-1
5.258831E-1
8.610137E-1
2.5587714E-1
2.4811281E-1
4.2912158E-1
9.5104456E-1
4.1605178E-1
2.6316503E-1
2.0165661E-2
8.097362E-1
3.322295E-1
4.3729785E-1
5.442284E-1
7.74588E-1
4.03704E-1
9.393927E-1
5.483573E-1
1.2672065E-1
7.0745933E-1
1.4290802E-1
6.624566E-1
9.3439406E-1
4.65614E-1
3.0692774E-1
8.8536954E-1
9.8505735E-1
4.6168455E-1
9.8336047E-1
8.4168136E-1
1.6174318E-1
4.4973737E-1
3.3122134E-1
3.9248663E-1
7.888087E-1
3.0293992E-1
7.934728E-1
4.0548754E-1
2.2587112E-1
8.898408E-1
8.7956846E-2
9.006885E-1
5.7034645E-2
9.162548E-1
8.863833E-1
4.359723E-1
2.5491878E-1
1.9096202E-1
6.4515615E-1
6.1664104E-1
7.088767E-1
3.9567629E-1
7.290324E-1
3.851492E-1
5.194139E-1
3.2394177E-1
6.1176844E-2
2.0503224E-1
4.0298632E-1
4.0939745E-1
2.0608856E-1
3.5630074E-1
1.23276696E-1
8.433478E-1
9.742241E-1
1.9886933E-1
2.1707264E-1
5.3415555E-1
6.0263883E-2
8.3119035E-1
6.8600255E-1
8.114123E-1
1.0373905E-1
7.9441196E-1
1.2626573E-1
1.1484931E-1
9.0332305E-1
3.2740405E-1
7.4924177E-1
7.870795E-1
1.5131228E-1
5.659973E-2
3.8735503E-1
1.8961074E-2
8.985806E-1
7.247458E-1
5.408565E-1
2.632534E-1
1.9551335E-1
1.8275958E-1
5.6633127E-1
8.573358E-1
1.921234E-1
9.408217E-1
7.220849E-1
9.575374E-1
5.6725E-1
8.2979435E-1
3.9961872E-1
7.6755726E-1
9.03874E-2
1.14204384E-1
9.606992E-1
2.316962E-1
7.773476E-1
9.6642405E-1
4.7550133E-1
3.906406E-1
5.2737266E-1
3.7302417E-1
6.287951E-1
6.147416E-1
8.399745E-1
3.5947013E-1
5.150761E-3
3.370962E-1
7.021133E-1
4.3866044E-1
1.5711957E-1
5.9500396E-1
1.4870039E-1
2.5630426E-1
8.048179E-1
2.821984E-1
3.909224E-1
6.5476346E-1
8.270975E-1
1.2509273E-1
3.2202277E-1
5.90884E-1
9.239871E-1
1.3428436E-1
3.0931577E-1
1.9045281E-1
8.160302E-1
4.1188014E-1
1.9811256E-1
3.779025E-1
9.7225505E-1
7.2793543E-1
2.3661178E-1
3.712764E-1
5.2792895E-1
5.083326E-1
6.6272616E-1
7.214779E-1
6.654954E-1
4.4618815E-1
7.866312E-1
1.4587026E-2
4.929526E-1
2.13004E-1
6.11857E-1
6.7505634E-1
9.745053E-1
2.8231475E-1
3.6225066E-1
4.8617068E-1
9.6922606E-1
5.463487E-1
7.5706846E-1
9.691508E-2
2.5689754E-1
1.2496664E-1
6.1797887E-2
6.597857E-1
8.020723E-1
4.482849E-1
3.2807425E-1
5.1272243E-1
8.1346315E-1
3.8043314E-1
8.275415E-2
8.965303E-1
4.5340878E-1
5.250597E-1
9.400973E-1
4.8697165E-1
5.171866E-1
9.897994E-1
3.344101E-1
1.600015E-1
9.3201613E-1
4.2743695E-1
3.286558E-1
2.9375216E-1
6.909114E-2
9.580827E-1
5.070141E-1
2.5581187E-1
4.4882068E-1
5.2231297E-2
8.049218E-1
4.6465462E-1
3.825817E-2
6.0715955E-1
2.668425E-1
7.345652E-1
1.6438918E-1
8.8884354E-1
1.8843916E-1
3.4684535E-2
6.9515634E-1
7.1875936E-1
2.2971961E-1
8.75264E-1
6.283093E-1
9.811283E-1
3.69634E-1
4.2231277E-1
1.1694902E-1
8.973173E-1
8.6777747E-1
7.766099E-1
4.0284532E-1
1.5791401E-1
2.1351915E-2
1.1533693E-1
8.6545765E-1
8.313569E-1
2.1370015E-1
4.2414325E-1
6.045299E-1
1.4328365E-1
3.6512905E-1
7.712474E-1
1.9871563E-1
7.9344565E-1
2.533523E-1
2.5447884E-1
5.073737E-1
3.3086413E-1
4.2526037E-1
1.7123546E-2
8.1921387E-1
9.44666E-1
7.389252E-1
7.2423214E-1
6.27806E-1
1.8818407E-1
2.5954857E-1
6.82954E-1
6.1167896E-1
8.346946E-1
9.104909E-1
9.7999436E-1
6.221665E-1
1.2582967E-1
3.2240853E-1
4.430007E-1
7.0701706E-1
1.17583215E-1
7.7456415E-1
7.0660514E-1
7.6519865E-1
3.9704347E-1
8.619468E-1
1.8673517E-1
9.727954E-1
7.118114E-2
2.7463984E-2
8.9921093E-1
1.6527142E-1
8.692502E-2
6.0343164E-1
2.6771408E-1
9.936663E-1
9.0830356E-1
7.139845E-1
1.5838717E-1
5.7812566E-1
7.771092E-1
4.53668E-1
3.9812508E-1
3.5069287E-1
4.0734622E-1
8.6256856E-1
4.2842647E-1
4.6633318E-1
3.3728546E-1
6.3414204E-1
8.215644E-1
9.6981126E-1
1.4796163E-1
1.3882348E-1
7.122413E-1
1.3319911E-1
3.207954E-1
8.4232795E-1
1.7675412E-1
3.311857E-1
8.079424E-1
8.446407E-1
5.994398E-3
3.132338E-2
7.843347E-1
5.983797E-1
3.1926134E-1
5.162998E-1
9.012501E-1
8.46333E-1
8.369859E-1
4.402273E-1
9.8039055E-1
9.20235E-1
7.8221196E-1
3.4388778E-1
5.6880537E-2
4.07088E-1
3.19199E-2
1.4656666E-1
6.938626E-1
9.698673E-1
1.08526625E-1
4.7861406E-1
4.5325828E-1
3.6539093E-1
6.4842063E-1
1.3145234E-1
2.3000589E-2
5.472554E-1
9.878252E-1
4.7098997E-1
1.00111015E-1
8.5284406E-1
9.430886E-1
8.926405E-1
5.287616E-1
8.736137E-1
1.2438453E-1
9.300986E-1
9.6453834E-1
1.6474678E-1
9.92338E-1
6.6968724E-2
7.7216613E-1
2.3195916E-1
7.651747E-1
3.9667124E-1
4.5288482E-1
1.0420438E-1
9.6560664E-2
6.299775E-1
3.4440282E-1
1.0528026E-1
6.399608E-1
9.8346514E-1
9.07951E-1
9.8995335E-2
4.9510676E-1
8.89682E-2
3.956091E-2
6.0768265E-1
4.5107716E-1
2.756646E-1
3.1393388E-1
8.514521E-1
7.7517897E-1
6.762857E-1
5.765646E-1
1.8207042E-1
5.968559E-1
8.53927E-1
4.8530844E-1
1.6997439E-1
2.3643827E-1
2.613552E-1
7.562704E-1
4.2773858E-1
3.4355205E-1
1.600525E-1
2.0164767E-1
7.676412E-1
4.4996962E-1
4.5686093E-1
2.930344E-1
1.9482422E-1
8.9982045E-1
3.156292E-1
7.646628E-1
3.362441E-1
8.1156665E-1
8.058831E-1
5.318743E-1
8.776176E-1
2.4689004E-1
1.6373387E-1
5.881081E-1
6.0638463E-1
2.14721E-1
1.170525E-1
7.1765333E-1
5.384368E-1
5.2136004E-2
6.58438E-1
8.542097E-1
5.385878E-1
8.4816945E-1
4.413466E-1
9.8960614E-1
7.2931117E-1
5.3696656E-1
1.3448809E-1
9.229903E-1
9.572343E-1
4.3731973E-1
5.595444E-1
4.754149E-1
6.7204285E-1
3.6495665E-1
5.473953E-1
1.6646102E-1
5.571548E-2
5.9329325E-1
2.6506278E-1
7.927544E-1
6.896796E-1
8.478993E-1
8.37402E-1
4.4689858E-1
4.5651096E-1
2.2768934E-1
9.968499E-1
6.3260734E-1
8.941907E-1
3.7377536E-1
8.467959E-1
7.62002E-2
2.1482592E-2
6.868601E-1
4.0609304E-2
4.09607E-1
5.797372E-1
5.249576E-1
2.4396238E-1
2.4647392E-1
8.3912665E-1
1.7853673E-1
4.206562E-1
6.7307717E-1
9.4352037E-1
8.555541E-2
7.5552195E-1
7.07525E-1
1.3808472E-1
1.2910534E-1
5.766396E-1
4.4848698E-1
4.7575712E-1
3.42579E-1
1.5378892E-1
8.67212E-2
5.117421E-1
1.9266354E-1
6.098592E-1
5.6121933E-1
7.2236633E-1
9.7372013E-1
9.446527E-1
5.865658E-1
6.238688E-1
8.6764854E-1
9.122865E-1
6.766301E-1
2.1135907E-1
8.409944E-1
9.263215E-1
5.715658E-1
9.3378305E-1
6.384625E-1
3.5153795E-2
6.160754E-1
2.7026042E-1
5.550068E-1
6.039991E-1
8.435495E-1
9.264007E-1
9.0718204E-1
2.683383E-1
3.274999E-1
9.330156E-1
8.769904E-2
8.431673E-1
3.9706683E-1
7.0112973E-1
4.37663E-1
5.499172E-1
4.6384633E-1
1.0698656E-1
4.5708868E-1
4.2005798E-1
2.9271045E-1
9.3339044E-1
8.373017E-1
2.8472006E-1
9.0033835E-1
8.1693166E-1
8.166184E-1
9.0596247E-1
7.340058E-1
5.031032E-1
7.5897235E-1
5.342285E-1
7.4746686E-1
2.6865074E-1
5.373555E-1
9.0910125E-1
7.5308484E-1
7.6913536E-1
1.404148E-1
6.676317E-1
6.577385E-1
5.6472427E-1
8.7072605E-1
3.8521868E-1
1.9228011E-1
4.1028753E-2
2.3382707E-1
3.0106005E-1
9.757758E-1
1.6004208E-1
8.030898E-1
6.642844E-1
2.6841654E-2
9.18553E-1
5.6839335E-1
9.4915307E-1
6.0094506E-1
9.966028E-1
8.290019E-1
6.766382E-1
9.173211E-1
6.8977827E-1
8.6976814E-1
6.6801167E-1
1.2813648E-2
6.998814E-1
2.9913354E-1
3.4691533E-1
7.1153146E-1
5.2472968E-2
3.643737E-1
4.583652E-1
7.155681E-1
7.5992453E-1
5.616768E-1
9.45663E-1
1.7025271E-1
7.459132E-1
6.856908E-1
6.093681E-1
2.957463E-1
6.86094E-1
2.9274648E-1
2.914034E-1
3.466722E-1
7.780371E-2
8.332031E-1
4.043018E-2
2.9911669E-2
6.8250465E-1
8.1110525E-1
8.981287E-1
7.258103E-1
9.7484547E-1
3.7612744E-2
6.542652E-1
3.063359E-1
6.4853305E-1
5.0365156E-1
3.2399893E-1
2.5800613E-1
5.179745E-1
2.1214232E-2
9.3818516E-2
1.518991E-1
7.8112876E-1
9.817111E-1
8.599778E-1
5.1620233E-1
5.749968E-1
1.201321E-1
6.099603E-1
1.6898972E-1
2.8308082E-1
1.0389033E-1
9.2726505E-1
8.2665247E-1
6.226971E-1
6.6738284E-1
9.481048E-1
2.4641702E-1
3.205314E-1
3.8031134E-1
2.321792E-1
2.840277E-1
5.8574647E-2
3.895066E-1
7.4908936E-1
5.666352E-1
1.5605228E-1
4.826435E-1
8.949402E-1
9.7603446E-1
3.3552465E-1
8.613482E-1
1.6355911E-1
5.414346E-1
5.9802884E-1
4.418926E-1
4.2144582E-1
9.623448E-1
9.8118836E-1
3.0211458E-1
6.154769E-1
8.521419E-1
8.679348E-1
7.378584E-1
9.238796E-1
8.0508965E-1
7.9831356E-1
4.0621987E-1
1.5717146E-1
6.2659967E-1
5.013282E-1
4.9189794E-1
7.933445E-2
8.018623E-1
1.9704191E-2
6.08708E-1
3.0665204E-1
3.9510873E-1
8.167859E-1
4.0854174E-1
7.5757556E-2
8.031314E-1
8.3981115E-1
4.006666E-2
5.665357E-1
4.2014438E-1
9.371256E-1
6.7849356E-1
5.7506514E-1
3.0954507E-1
3.1530982E-1
1.7381225E-2
6.7493755E-1
4.7682602E-2
3.353081E-1
6.184509E-1
2.4399483E-1
2.1457455E-1
5.494955E-1
3.7687123E-1
2.4385346E-1
1.6614859E-1
6.653774E-1
2.1741006E-1
3.373595E-1
2.9857072E-1
2.4633949E-1
9.846384E-1
7.093567E-2
7.770099E-1
4.7372252E-1
2.3998806E-1
8.220118E-1
4.3926337E-1
2.079531E-1
8.711553E-1
6.9700456E-1
7.1285826E-1
9.0679497E-1
9.0887064E-1
4.0033242E-1
2.7763635E-1
4.8277342E-1
2.0665035E-1
3.1370986E-1
5.5405724E-1
4.2763364E-2
6.2505804E-2
3.2518208E-2
9.829341E-3
1.7371467E-1
2.5494802E-1
5.3273316E-2
3.1151092E-1
3.2775083E-1
1.6146855E-1
2.6980248E-1
8.7671834E-1
2.018674E-3
3.690301E-1
4.2618683E-1
4.7452116E-1
2.2473696E-1
6.731192E-1
8.700262E-1
8.040299E-1
6.537137E-1
4.3587112E-1
8.3178455E-1
2.9026002E-1
5.136101E-1
9.859738E-2
4.7455767E-1
5.0972956E-1
5.175251E-1
4.6277723E-1
9.025998E-1
5.600301E-1
3.581277E-1
1.838051E-1
2.822594E-1
9.2066973E-1
6.173786E-1
7.632108E-1
6.391694E-1
4.460092E-1
3.2215565E-1
1.4748816E-2
6.130537E-1
1.029287E-1
9.2731005E-1
8.9082515E-1
8.60733E-1
2.8795347E-1
5.548479E-1
2.807206E-1
1.92284E-1
8.532069E-1
6.230798E-1
8.1129164E-1
6.867259E-1
2.7413398E-1
5.205849E-1
4.856247E-1
6.300201E-1
3.994338E-2
3.60384E-1
2.8747332E-1
4.8332784E-1
3.5123608E-1
8.0925506E-1
3.9995036E-1
3.5468894E-1
1.6866201E-1
9.695218E-1
6.865946E-1
6.111299E-1
3.8754582E-1
2.6431242E-1
6.2501353E-1
8.7122136E-1
5.6334827E-2
4.6918228E-1
7.0797414E-1
2.7087203E-1
1.5179087E-1
7.7842206E-1
6.261156E-1
4.597745E-3
6.4995587E-1
7.9924816E-1
4.0383437E-1
3.7928176E-1
7.9448205E-1
3.4899265E-1
6.212323E-1
4.6369448E-1
7.5520587E-1
4.9165007E-1
4.8489013E-1
9.4592285E-1
1.8721011E-1
7.096609E-1
5.131113E-1
4.050643E-1
7.520603E-1
7.101041E-1
7.6731604E-1
3.690152E-1
2.7842858E-1
4.400896E-2
9.704246E-1
5.362557E-1
1.8888451E-1
7.580274E-1
5.597334E-1
7.3433805E-1
7.878748E-1
1.0761523E-1
3.325885E-1
3.715554E-1
3.5296026E-1
1.3746879E-1
2.4693033E-1
3.2008648E-1
5.577804E-1
8.919927E-1
3.9952812E-1
6.86913E-1
3.252475E-2
1.4582819E-1
4.7582617E-1
3.1495184E-1
9.816411E-1
4.4206548E-1
3.920118E-1
4.6450746E-1
6.196202E-1
4.7117073E-2
6.017114E-1
6.128697E-1
7.658731E-1
4.2556888E-1
6.559855E-1
8.0464876E-1
7.011252E-1
5.4426837E-1
2.8378373E-1
8.372794E-1
9.09024E-1
9.0496796E-1
6.8911064E-1
2.0292594E-1
2.6294729E-2
5.770763E-1
6.5809375E-1
5.8212824E-2
5.686575E-1
1.6639856E-1
7.897214E-1
5.9030735E-1
3.2426924E-1
5.881812E-1
3.978622E-2
6.928714E-1
4.6590015E-1
5.11079E-1
2.7971423E-1
4.3822575E-1
6.252881E-1
8.971466E-1
7.2505385E-1
3.374085E-1
6.321573E-2
1.7787911E-1
2.0119941E-1
2.0938891E-1
1.5886512E-1
6.081071E-1
9.954687E-1
1.302982E-1
8.7967294E-1
4.4655657E-1
9.695564E-1
4.2267212E-1
3.9142707E-1
7.533729E-1
1.329785E-1
9.212541E-1
9.083291E-1
1.4238654E-1
7.2959626E-1
5.3929836E-1
1.8870613E-1
3.4252E-1
6.012621E-1
9.8711394E-2
3.7788334E-1
9.872591E-1
2.2505615E-2
2.6805493E-1
3.6134686E-2
4.4160277E-2
9.287463E-1
1.381639E-1
4.3640468E-1
6.639396E-1
3.0047266E-2
3.6805332E-1
2.518034E-1
5.939147E-1
6.5832084E-1
5.631958E-1
5.7670194E-1
6.7464995E-1
8.330982E-1
2.0610152E-1
2.9392737E-1
8.711157E-2
7.8614825E-1
8.6764616E-1
2.4865347E-1
1.6711009E-1
9.716546E-1
8.8837445E-1
2.3488845E-3
6.883799E-1
8.620864E-1
2.8792146E-1
2.7337673E-1
3.153296E-1
8.772796E-1
8.169078E-2
6.0032886E-1
5.521083E-1
6.639262E-1
7.555197E-1
3.5705946E-2
7.6962787E-1
5.0042677E-1
8.321095E-1
4.6254262E-1
6.697506E-1
3.520625E-2
5.2574664E-1
9.192277E-1
6.731113E-1
3.2177925E-1
7.842766E-1
6.935566E-1
6.3296014E-1
3.012175E-2
2.3348652E-1
5.208151E-1
3.1285864E-1
8.487056E-1
3.8841397E-3
6.0407364E-1
3.5408407E-2
7.095525E-1
9.4661266E-1
4.906422E-1
6.3764805E-1
9.506724E-1
1.9186553E-2
9.393029E-1
3.884182E-1
9.665468E-1
6.319515E-1
9.377013E-1
2.052593E-1
8.865204E-1
5.800496E-1
5.529427E-1
1.2074758E-1
3.260369E-1
9.994722E-2
3.5772166E-1
7.195929E-1
2.742014E-1
7.280517E-1
3.2478344E-1
2.8437035E-2
3.9303064E-1
3.1683192E-1
2.9160583E-1
3.158198E-2
9.740001E-1
9.744691E-1
7.662622E-1
4.045002E-1
2.7142617E-1
1.6500024E-1
7.108126E-2
5.0993156E-1
1.2250708E-1
7.9894334E-2
1.6358873E-1
2.41046E-1
2.8888896E-1
1.5836264E-1
5.8772385E-1
9.6441543E-1
4.0259266E-1
7.8530616E-1
8.495072E-1
1.7208916E-1
7.106452E-1
1.0740239E-1
3.1856143E-1
6.619575E-1
6.7123234E-1
3.1226623E-1
3.1909126E-1
8.139813E-1
2.8915733E-1
7.6713914E-1
3.3765328E-1
2.6823992E-1
7.707517E-1
9.2717034E-1
2.0144556E-3
9.6057683E-1
9.364899E-1
6.7624694E-1
9.394871E-1
1.4496449E-1
7.8022844E-1
2.2917405E-2
8.32235E-1
6.1226004E-1
1.7452127E-1
8.8206404E-1
3.5043785E-1
7.211904E-1
7.3389643E-1
6.0138345E-1
4.8141485E-1
6.937384E-1
1.3859932E-1
2.9046708E-1
6.856179E-2
3.6043775E-1
8.279976E-1
1.4826629E-1
5.096224E-1
4.0408695E-1
7.8730255E-1
2.4061577E-2
1.6871002E-1
3.647635E-1
2.6108366E-1
4.1008744E-1
5.5769145E-1
8.973678E-1
6.46982E-1
7.803052E-1
3.2469112E-2
9.837493E-1
2.8337228E-1
5.174509E-1
9.2914283E-1
3.740708E-1
7.1385115E-1
3.2580513E-1
4.5098817E-1
2.3912154E-1
2.8538007E-1
7.733683E-1
4.1132092E-1
5.013036E-1
3.2293952E-1
1.4778484E-1
3.202164E-1
4.2564654E-1
3.4898004E-1
4.5712194E-1
6.398923E-1
1.2762514E-1
6.005223E-1
7.105266E-1
8.625597E-1
9.970709E-1
5.4436535E-1
4.9684164E-1
3.386706E-1
6.574769E-1
2.392826E-1
7.013226E-1
1.425098E-1
4.5513168E-1
9.2799693E-1
5.4033536E-1
5.2930486E-1
3.3541102E-2
6.3532513E-1
2.882938E-1
7.5916016E-1
2.648887E-1
7.859807E-1
3.7664446E-1
1.4546637E-1
9.888801E-1
5.6594664E-1
4.2257345E-1
4.934725E-1
8.8812697E-1
7.0427805E-1
1.2985827E-1
7.582485E-1
6.4142704E-2
8.652237E-1
1.5640232E-1
7.682916E-1
7.0661104E-1
9.917759E-1
8.874631E-1
5.112718E-1
9.399673E-1
9.6644866E-1
4.4909748E-1
8.3956474E-1
6.302938E-1
7.1160513E-1
6.62538E-1
3.3757925E-1
7.114207E-1
8.524548E-1
8.947711E-1
9.420284E-5
9.737709E-1
9.579433E-1
7.7394795E-1
8.237054E-1
1.2683184E-1
8.861239E-3
9.163473E-2
2.8230298E-1
6.095193E-1
7.909515E-1
2.1926758E-1
3.2566202E-1
8.2499146E-1
1.6029817E-1
2.2318164E-1
4.4673316E-2
4.7177097E-1
1.6214883E-1
7.0537776E-2
8.0563354E-1
9.3617904E-1
5.0840104E-1
6.648428E-1
6.0352195E-2
6.3647246E-1
3.1196186E-1
3.383598E-1
6.3274574E-1
3.55834E-1
9.811961E-1
4.0977263E-1
2.637839E-1
6.4319426E-1
8.1028706E-1
5.5148506E-1
1.8662168E-1
9.6013385E-1
5.097625E-2
7.9866827E-1
3.3558303E-1
9.167508E-1
5.864737E-1
2.0170204E-1
7.492816E-1
1.6781065E-1
9.7085685E-1
7.330979E-1
8.148066E-1
6.419826E-1
1.156038E-1
8.525728E-1
1.1229904E-1
5.3076185E-2
3.2312024E-1
1.8201138E-1
3.5312045E-1
4.5721045E-1
2.1328051E-1
9.346626E-1
7.3693573E-1
6.843347E-1
1.5282881E-1
6.9783455E-1
6.1799973E-1
2.7691352E-1
9.896106E-1
9.038497E-1
5.393804E-1
5.925008E-1
6.240213E-1
8.0876875E-1
3.4114465E-2
5.404447E-1
8.967682E-1
6.6821396E-1
1.7981708E-1
7.493812E-1
3.8274294E-1
1.0785711E-1
7.366005E-1
6.703596E-1
6.1726063E-1
7.807673E-1
5.942673E-1
6.9091207E-1
7.4930924E-1
7.0165044E-1
3.9875132E-1
6.612391E-1
1.5535899E-2
4.1790888E-1
7.6026773E-1
8.9500403E-1
5.577829E-1
7.130588E-1
8.6423516E-1
8.097412E-1
2.5778177E-1
7.955318E-2
9.5761406E-1
3.0642903E-1
9.250731E-1
5.3466636E-1
8.210534E-1
3.9646174E-3
5.452962E-1
6.6516465E-1
8.756365E-1
8.2681197E-1
8.876064E-1
6.6625327E-1
4.9134314E-2
1.5580529E-1
2.9169977E-1
7.362663E-1
5.7030488E-2
4.7267222E-1
6.974044E-1
3.211115E-1
1.08362086E-1
9.92272E-1
2.361157E-1
9.6600807E-1
4.3982095E-1
9.4438165E-1
3.8971195E-1
2.502667E-1
2.2170664E-1
8.7973183E-1
9.1236085E-1
9.159193E-1
8.5725033E-1
9.49783E-1
2.903266E-1
8.967467E-1
4.8297617E-1
5.9593683E-1
2.3319282E-2
7.094859E-1
3.6079577E-1
2.585206E-1
3.8471374E-1
4.9428424E-1
5.4059055E-2
3.249041E-4
6.390222E-2
8.7470615E-1
4.7179163E-1
6.231498E-1
1.120415E-1
1.7963804E-1
3.8991854E-1
8.861122E-1
3.4923366E-1
8.4351987E-1
2.5066702E-2
2.3476703E-1
3.013179E-1
5.7685727E-1
6.429686E-1
8.617689E-1
5.85038E-2
8.420237E-1
7.2087675E-1
4.124756E-1
4.664449E-1
1.7318921E-1
2.1704635E-1
9.850471E-1
2.822083E-1
3.059929E-1
2.6552942E-1
7.4033535E-1
8.248926E-1
5.463388E-1
9.62056E-1
8.662076E-1
4.689103E-1
1.4088555E-1
6.63573E-1
5.9852034E-2
7.221364E-1
9.421702E-1
3.8695708E-1
4.1224282E-2
3.6416125E-1
3.3829996E-1
4.0967315E-1
8.949559E-2
6.30843E-1
6.1094886E-1
7.6359576E-1
9.3948203E-1
9.273903E-1
5.722162E-1
5.4280114E-1
1.5752816E-1
3.9469332E-1
2.4095802E-1
5.940098E-1
8.618123E-1
4.7839332E-1
7.58039E-1
8.5005677E-1
5.757229E-1
8.056886E-1
2.2450399E-2
1.20931044E-1
2.7751362E-1
6.926775E-1
9.586044E-1
2.7273175E-1
9.117308E-1
1.1738777E-1
8.73882E-1
5.461576E-1
2.4069664E-1
4.754854E-1
7.3751897E-1
9.571841E-1
1.17780924E-1
5.7545334E-1
7.710863E-1
9.903391E-1
8.904504E-2
9.130369E-2
4.1633534E-1
1.15562364E-1
9.6865547E-1
5.4786974E-1
9.999069E-1
8.0111396E-1
5.3915232E-2
2.0917386E-1
7.107505E-1
6.0444564E-1
6.411319E-1
7.113812E-1
9.6120983E-1
7.1579933E-1
3.842536E-1
9.023105E-2
3.9627007E-1
7.6859677E-1
5.30921E-1
2.7997684E-2
2.2176293E-1
5.533715E-1
6.6440725E-3
2.937344E-2
4.9185824E-1
1.7141534E-1
2.4171214E-1
5.2346444E-1
7.0403385E-1
5.0538633E-2
2.6341996E-1
2.9992244E-1
9.957844E-1
5.014579E-1
7.1830565E-1
6.1515915E-1
1.7695335E-1
7.8558284E-1
3.882484E-1
2.4220999E-1
2.5461653E-1
6.643767E-1
4.568896E-1
3.8843387E-1
7.05555E-1
3.6650352E-2
7.4361277E-1
4.7431138E-1
1.4680777E-1
8.7270683E-1
2.3370557E-1
7.008906E-1
3.509537E-1
9.111853E-1
1.7688026E-1
5.447764E-1
3.3660015E-1
1.74984E-1
3.0945942E-1
4.7401345E-1
1.8747044E-1
2.2665167E-1
9.9334294E-1
2.6618043E-1
5.1896167E-1
8.139975E-1
2.4065012E-1
2.5702897E-1
8.9394385E-1
6.625174E-1
4.3220412E-2
5.309969E-1
2.0934668E-1
8.05418E-1
3.365422E-1
6.568467E-1
1.7111677E-1
3.021048E-1
2.4342595E-1
4.3546635E-1
9.5030034E-1
5.171745E-1
2.0270735E-1
4.2304122E-1
7.102531E-1
8.2263577E-1
9.230527E-1
4.264038E-1
1.1670195E-1
1.1026372E-1
3.1827062E-1
7.485372E-1
8.6449826E-1
1.0126472E-1
8.658618E-1
4.799178E-1
7.9205006E-1
1.4267485E-1
3.366743E-1
9.486911E-1
2.457638E-1
7.403881E-1
9.6658576E-1
2.8817242E-1
5.739532E-1
3.855811E-1
5.3889966E-1
9.682748E-2
1.9119287E-1
3.5660395E-1
8.553118E-1
2.707805E-1
5.665536E-1
1.4040205E-1
4.8292905E-1
7.2561413E-1
8.730363E-1
7.9246074E-1
8.5720956E-1
4.5055148E-1
2.0316112E-1
8.104936E-1
5.285493E-1
8.2567257E-1
5.666811E-1
2.2365002E-1
2.231361E-1
9.971341E-1
6.020262E-1
4.2150757E-1
6.022441E-1
4.9039698E-1
7.238051E-1
2.5125396E-1
4.3273956E-1
7.948635E-1
4.714217E-1
2.853747E-1
5.307328E-1
7.9272026E-1
2.9786208E-1
8.238093E-2
6.0392886E-1
2.01792E-1
6.1969244E-1
3.2540396E-1
2.9992738E-1
6.573251E-2
1.8032385E-1
2.3011634E-1
4.5630798E-2
7.285722E-2
7.4163735E-1
8.3320993E-1
2.5900701E-2
7.4992746E-1
1.1943513E-1
8.619428E-1
4.6625152E-1
6.9379187E-1
9.1105974E-1
7.379631E-2
2.6287955E-1
4.0221727E-1
4.3898037E-1
8.150117E-1
5.113922E-1
8.8410705E-1
5.2058727E-1
2.9769516E-1
6.104774E-2
6.345063E-2
9.655719E-1
1.6157232E-1
7.0241743E-1
2.899415E-1
6.952567E-1
5.1140887E-1
9.219467E-1
6.325625E-1
7.4247426E-1
2.5249422E-1
7.391172E-1
8.957823E-1
4.2963618E-1
1.6381235E-1
3.1471503E-1
8.95054E-1
6.163019E-1
9.4224983E-1
5.056728E-1
3.6526802E-1
1.7912465E-1
6.205525E-1
7.2520125E-1
4.138038E-1
6.016197E-1
3.7316594E-1
6.659038E-1
6.0441965E-1
7.882592E-3
6.0807025E-1
8.072646E-1
9.202014E-1
7.7930295E-1
2.4434328E-1
8.405496E-1
2.748022E-1
5.772287E-1
3.3747926E-1
2.811652E-1
5.4134446E-1
6.1014246E-2
3.2074094E-1
3.2459998E-1
5.2377605E-1
1.1252795E-2
8.170284E-1
1.309392E-1
5.449785E-1
2.9714373E-1
5.5607265E-1
7.7837634E-1
3.6246583E-1
1.8074016E-1
9.1001165E-1
6.406985E-1
6.2207377E-1
1.2416467E-1
4.0732336E-1
1.6311075E-1
1.5568826E-1
3.4859878E-1
5.6379503E-1
8.482122E-1
9.255262E-1
3.21225E-1
9.9340224E-1
3.939491E-2
7.58032E-1
8.61617E-1
9.478911E-1
9.6303695E-1
1.6940674E-1
1.623727E-1
9.75945E-1
9.2487824E-1
1.1139409E-1
4.099781E-1
7.0469385E-1
1.1498303E-1
5.8668697E-1
9.119346E-1
4.7999817E-1
2.1050042E-1
1.4635442E-1
8.772433E-1
5.260415E-1
5.267522E-1
8.5178435E-1
5.4859245E-1
4.016841E-2
5.220284E-1
6.5547305E-1
3.8382563E-1
8.171981E-3
7.787583E-1
3.0583128E-1
7.081678E-1
3.8188154E-1
5.451833E-1
5.2486175E-1
9.245785E-1
4.4881395E-1
9.029453E-2
7.2835827E-1
4.6866485E-3
5.697451E-1
1.7606989E-1
8.217186E-1
8.172781E-1
2.9172635E-1
9.845384E-1
9.176858E-1
9.5575136E-1
1.9336271E-1
8.837259E-1
5.321947E-1
7.056414E-1
3.6889488E-1
2.883626E-1
7.961795E-1
8.366891E-1
7.0315444E-1
4.6080065E-1
7.465791E-1
6.199177E-1
6.5469056E-1
5.0561917E-1
4.5081264E-1
8.160194E-1
2.4493009E-1
9.016524E-2
7.702452E-1
6.2795275E-1
6.6616035E-1
8.554985E-1
1.6713724E-1
3.7886673E-1
9.276071E-1
7.340229E-1
1.9753656E-1
5.965788E-1
8.1653726E-1
9.427523E-1
9.5923364E-1
9.714142E-1
5.691471E-1
3.995839E-1
1.384337E-1
8.201335E-1
9.0955436E-1
7.1128094E-1
6.700016E-1
8.234688E-1
3.30711E-1
2.2500522E-1
8.925155E-1
1.13546476E-1
2.2962551E-1
5.785703E-1
3.876679E-1
5.2931756E-1
8.0471444E-1
1.4204644E-1
9.908554E-1
8.830301E-3
1.1647538E-1
9.154097E-1
6.752624E-1
3.540538E-1
2.4727476E-1
5.710401E-1
2.840671E-1
5.487686E-1
4.6346134E-1
6.371285E-1
3.7200734E-1
4.1337448E-1
6.978505E-1
7.080641E-1
4.2204684E-1
1.8074423E-1
3.906567E-1
8.4903784E-2
6.391775E-1
3.7890235E-1
8.677954E-1
8.796393E-1
8.6407185E-1
7.0247436E-1
4.323398E-1
7.2390103E-1
1.3895743E-1
8.0346227E-1
6.1415285E-1
3.1718132E-1
9.733764E-1
4.1396942E-2
8.344734E-1
9.864052E-1
1.117936E-1
6.8048024E-1
6.652982E-1
4.5746867E-2
1.9785587E-1
6.377836E-1
8.85254E-1
1.3002554E-1
4.22109E-1
3.310459E-1
2.894528E-1
3.8201642E-1
5.095022E-2
1.4700458E-2
3.6792308E-1
3.5560292E-1
8.300389E-1
9.488317E-2
2.996486E-1
8.809592E-1
9.059525E-1
1.4669345E-1
7.2057134E-1
5.480888E-1
5.046695E-1
2.999717E-1
3.5086223E-1
6.959888E-1
9.171638E-1
5.964637E-1
5.7430243E-1
5.112589E-1
5.158936E-2
1.18264176E-1
8.115911E-2
8.629673E-1
4.220745E-1
2.4673678E-1
2.5762427E-1
9.679718E-1
9.190411E-1
9.002935E-1
2.8817487E-1
2.0055251E-1
1.4593472E-2
1.5741184E-1
1.2364412E-3
1.4053783E-1
7.383196E-1
1.9505917E-1
3.518151E-1
8.7715346E-1
2.3673232E-1
8.774766E-2
3.5201368E-1
8.985302E-1
4.979458E-1
6.9785994E-1
1.030934E-1
2.4710293E-1
2.5837928E-1
3.1069076E-1
4.5699197E-1
2.5506338E-1
5.447367E-1
8.224138E-1
1.19877756E-1
7.931845E-1
3.890814E-1
9.5980704E-1
7.557708E-1
1.417232E-1
4.4573382E-1
4.9588537E-1
7.6415396E-1
9.7666013E-1
2.2855012E-1
5.978406E-1
8.8386637E-1
8.053732E-2
5.8305675E-1
3.8650712E-1
6.242338E-1
6.883394E-1
7.312066E-1
9.983222E-1
1.5726699E-1
4.9672514E-1
2.5695705E-1
9.996512E-1
8.8071823E-1
9.34342E-1
2.0792452E-1
1.8400539E-2
1.9169065E-1
8.6246145E-1
4.804978E-1
9.5511836E-1
8.1978863E-1
6.268487E-1
1.7391672E-2
2.7386245E-1
4.1479063E-1
4.4171488E-1
4.087696E-1
7.371824E-2
8.6899316E-1
5.2654784E-2
2.4512409E-1
7.4136037E-1
6.2080103E-1
3.3028892E-1
5.5508894E-1
8.247289E-1
8.303058E-1
3.5698645E-2
1.5184501E-1
8.431768E-1
4.9189985E-1
6.3823E-1
1.6417617E-2
4.4418168E-1
7.282854E-1
6.490527E-1
2.7174848E-1
3.036082E-1
5.1681334E-1
6.6383725E-1
7.4778116E-1
1.551257E-1
9.084567E-1
7.915326E-1
1.6795604E-1
5.3063756E-1
9.082752E-1
7.2854656E-1
3.7847576E-1
8.103507E-1
5.4617035E-1
6.9177285E-2
3.105236E-1
7.5055283E-1
4.310848E-1
9.924256E-1
8.95669E-2
9.8299E-1
1.0886899E-1
8.7384903E-1
7.906505E-1
2.8932545E-1
5.991446E-1
9.6695644E-1
5.170572E-1
5.9516773E-2
8.512733E-1
1.8422991E-1
3.7724075E-1
1.4215025E-1
3.178777E-1
8.983541E-1
6.915327E-1
9.3143314E-1
7.7079165E-1
3.1159222E-1
2.0721939E-1
8.0379254E-1
7.7087235E-1
8.526994E-1
9.136665E-1
7.5445944E-1
3.0619565E-1
8.885886E-1
2.6382966E-2
2.593531E-1
1.7155418E-1
3.27613E-1
4.9582914E-1
9.7896075E-1
4.8431718E-1
5.426204E-1
8.552849E-1
3.946207E-1
8.042587E-1
8.1081176E-1
2.0961432E-1
6.233748E-1
4.737487E-1
9.2602617E-1
4.663352E-1
1.3759714E-1
7.3070383E-1
2.8433985E-1
8.014525E-1
1.19165964E-1
4.7331497E-1
2.3572221E-1
9.655292E-1
5.737598E-1
1.11271895E-1
5.637876E-1
8.0500376E-1
7.0005023E-1
8.372457E-2
1.6614163E-1
7.032627E-1
4.8975885E-1
9.780356E-1
4.9269956E-1
2.9419842E-1
5.909812E-1
6.866203E-1
3.3369106E-1
1.8066296E-1
1.7052583E-2
9.080204E-2
1.0868711E-1
8.492205E-1
7.012613E-1
7.6196915E-1
7.9396695E-2
5.1095683E-2
6.2032294E-1
4.939324E-1
3.1900904E-1
1.0599936E-1
9.620161E-1
6.9359934E-1
2.652824E-1
7.4477315E-1
4.9421352E-1
9.326175E-1
9.0139455E-1
2.0204535E-1
6.484894E-1
9.0183216E-1
2.690206E-1
2.3476097E-1
6.4322317E-1
7.201126E-1
8.7534034E-1
7.926295E-2
2.9541284E-1
5.038598E-1
9.135935E-2
5.185127E-1
7.258851E-1
8.098491E-1
1.0563088E-1
3.4760335E-1
9.236375E-1
9.68841E-1
5.665066E-1
8.868464E-1
4.5450523E-1
2.6224753E-1
9.0788686E-1
9.068406E-1
4.4281217E-1
2.0355739E-1
1.5640708E-3
6.642427E-1
7.8960866E-1
8.027627E-1
8.9565456E-1
1.3089763E-1
2.3358855E-1
8.870579E-1
8.4422536E-2
7.9616547E-1
5.0479317E-1
8.075174E-1
4.7316524E-1
1.4766361E-1
9.42759E-1
5.223751E-1
9.3705696E-1
2.0379588E-1
8.3153225E-2
1.9266173E-1
4.4636503E-1
4.150635E-1
5.700375E-1
8.5557824E-1
5.7681805E-1
1.7035384E-1
7.9498196E-1
5.9583014E-1
8.423327E-1
7.3870575E-1
1.9600022E-1
9.162468E-1
4.4152272E-1
4.219826E-1
4.3492216E-1
9.3083674E-1
9.658171E-1
8.3961684E-1
6.929376E-1
6.880856E-1
2.685273E-1
2.2884798E-3
2.8209272E-1
7.698743E-1
2.20635E-1
3.8548285E-1
4.4664495E-2
2.8842044E-1
3.7180418E-1
9.589956E-1
4.2536074E-1
4.1909132E-2
1.377746E-1
1.3184105E-1
6.405905E-1
6.372442E-1
9.4054794E-1
8.0224895E-1
5.2487504E-1
5.5969965E-1
2.231064E-1
7.515269E-1
6.5172964E-1
9.7883666E-1
7.10256E-1
2.4559526E-1
7.3350394E-1
2.4813193E-1
6.595233E-1
8.30114E-1
8.622182E-1
4.3108154E-2
5.239949E-1
2.110722E-2
8.453257E-1
3.8165655E-2
7.170483E-1
9.7917306E-1
5.469458E-1
8.0075264E-1
7.742448E-1
7.536149E-1
2.3336194E-1
1.3071925E-2
9.9498264E-2
9.797133E-1
6.691178E-2
9.914492E-1
5.2712625E-1
8.771784E-1
6.8622667E-1
6.8743664E-1
2.0630383E-1
7.3848224E-1
1.6931017E-1
4.2294276E-1
1.8671209E-1
5.580408E-1
5.5924475E-1
7.4299014E-1
1.1975876E-1
4.980438E-1
9.85476E-1
5.613339E-1
4.938351E-1
1.5379108E-1
2.4795169E-1
4.2211723E-1
7.8580993E-1
7.1749985E-1
9.182594E-1
5.2603614E-1
9.426559E-1
7.3540854E-1
6.829559E-1
8.0393655E-3
6.136503E-1
1.7733121E-1
6.0350275E-1
2.4145337E-2
6.228271E-1
4.8339087E-1
2.4742474E-1
9.29624E-1
2.583217E-1
6.6664535E-1
6.159322E-1
4.0615192E-1
6.7937136E-1
9.373031E-1
7.426385E-1
9.5793444E-1
9.080251E-1
2.1679318E-1
4.2020822E-1
4.9725026E-2
3.8564456E-1
5.614057E-1
9.2229635E-1
8.240213E-1
8.762201E-2
9.84495E-1
4.0520236E-1
4.6243197E-1
6.508899E-1
9.637371E-1
2.2261201E-1
3.4247413E-1
1.23646885E-1
7.0544755E-1
6.051044E-1
8.9832115E-1
8.172745E-1
9.425051E-1
9.082311E-1
6.219361E-1
7.537086E-1
6.029929E-1
1.3312262E-1
5.6250624E-2
4.9896783E-1
5.7864404E-1
3.6153924E-1
6.515076E-1
5.0146735E-1
4.768742E-2
1.6110456E-1
8.961892E-2
5.1765937E-1
2.0386696E-1
8.454304E-1
3.2680872E-1
6.847365E-1
3.7601686E-1
2.9200047E-1
1.468177E-1
1.8365039E-1
7.095208E-1
7.4859756E-1
6.416802E-1
5.2588916E-1
9.192942E-1
7.641407E-1
6.627437E-1
5.7143766E-1
1.5963579E-2
9.7214305E-1
1.1785687E-1
8.6916566E-1
8.1117636E-1
3.1670648E-1
5.057726E-1
4.9697354E-1
6.1356395E-2
8.186167E-1
9.603185E-1
2.5126097E-1
6.1263645E-1
5.009059E-1
1.8342273E-1
4.9178502E-1
7.082591E-2
3.5280824E-1
4.9071297E-2
5.248989E-1
2.0688121E-1
8.073811E-1
7.143212E-1
5.600601E-1
5.006095E-1
2.3473136E-1
7.189799E-1
9.760352E-1
7.617307E-2
7.324485E-1
9.1263956E-1
9.955303E-1
4.9704224E-1
3.8422656E-1
9.25439E-1
1.9784588E-1
2.5982392E-1
9.8392415E-1
4.5847234E-1
1.5341543E-1
7.175147E-1
9.191969E-1
5.9456164E-1
9.106354E-1
2.748962E-2
2.1794213E-2
5.006733E-1
3.2620974E-2
8.4673184E-1
8.271216E-1
7.465027E-1
5.326293E-1
2.0522135E-1
5.0891864E-1
5.3198725E-1
5.9933733E-2
2.0520937E-1
3.9657593E-1
7.3604874E-2
2.3946814E-1
5.519663E-1
1.220258E-2
5.626577E-1
5.2944475E-1
8.396509E-1
1.653658E-1
8.8354653E-1
1.9907826E-1
5.809587E-2
3.5054155E-2
2.3310855E-1
6.3419664E-1
3.791883E-1
5.21553E-1
4.4437498E-1
7.867715E-1
9.121044E-1
4.7785193E-1
5.1770824E-1
5.940356E-1
1.7941552E-1
9.277263E-2
7.346535E-1
6.685945E-2
2.1151245E-1
3.759935E-1
2.497231E-1
4.8362413E-1
5.965262E-1
2.9148772E-1
9.774018E-1
4.869963E-1
4.2082328E-1
4.422192E-1
1.3246123E-1
9.2479503E-1
5.550861E-1
2.2112414E-1
4.000935E-1
3.3090308E-1
9.160524E-1
3.9913017E-1
8.219259E-1
5.894298E-1
4.07691E-1
7.8878975E-1
5.2469695E-1
9.563254E-1
4.0926152E-1
1.1813289E-1
9.4113655E-2
1.1972187E-1
2.781446E-1
2.4530583E-3
6.963231E-2
9.476447E-1
2.513063E-1
8.232005E-2
5.850291E-1
8.097607E-2
3.9204958E-1
3.1756216E-1
2.7983472E-1
7.9820544E-1
5.0698525E-1
9.8897946E-1
8.8677216E-1
5.1609355E-1
1.2319313E-1
5.061013E-1
6.563943E-1
3.9957663E-1
8.121671E-1
8.6263984E-1
3.317922E-1
5.806879E-1
6.9156575E-1
7.3557454E-1
7.01091E-1
3.059304E-1
4.3872288E-1
7.8059936E-1
4.7086915E-1
5.2553713E-1
4.0722457E-1
8.248759E-1
2.3191672E-2
3.6672518E-2
2.3810112E-1
2.9752406E-1
6.8583846E-2
1.8022655E-1
8.0115694E-1
1.5605552E-1
7.585184E-1
4.764693E-1
2.0135947E-1
9.323337E-1
8.8007003E-1
1.2298024E-1
1.5593128E-1
9.9616313E-1
5.184689E-1
9.050526E-1
5.0784445E-1
2.8278887E-1
7.0879596E-1
4.2437744E-1
8.239224E-1
9.513211E-1
6.057397E-1
6.058185E-1
8.067125E-1
7.3104566E-1
1.11765824E-1
3.0046973E-1
3.232751E-2
2.268088E-1
2.3089875E-1
4.4315654E-1
3.4053108E-1
8.4614044E-1
9.9534124E-1
6.727004E-1
9.313124E-2
6.6620356E-1
5.6345356E-1
5.0363094E-1
5.760903E-1
3.6813456E-1
3.5662748E-2
3.1722614E-1
7.043688E-1
8.578067E-2
4.6461776E-1
2.1858062E-1
2.8468806E-1
5.1500195E-1
9.387846E-1
5.0807756E-1
2.5173676E-1
1.7847657E-1
6.0442615E-1
7.4917644E-1
9.4229126E-1
8.5908806E-1
7.362731E-1
3.9202237E-1
3.1988856E-1
8.0651325E-1
5.2269973E-2
6.666664E-1
9.641312E-1
9.7967E-1
7.9152566E-1
2.804639E-1
1.08568035E-1
6.652682E-1
5.494217E-1
3.5007113E-1
3.7131403E-2
4.4306463E-1
3.2815757E-1
7.320676E-1
8.9562577E-1
2.6329708E-1
3.1652847E-1
7.9399544E-1
9.5336545E-1
5.014701E-1
9.321788E-1
8.1802094E-1
3.400184E-1
6.838649E-1
8.9704967E-1
9.394609E-2
6.4599593E-3
1.1173901E-1
4.3542087E-1
5.825435E-1
2.0354673E-1
2.3229384E-1
2.821791E-1
3.4276497E-2
9.569793E-1
7.5527436E-1
8.7073994E-1
5.4747903E-1
2.3559336E-1
1.4346273E-1
8.961469E-1
4.2916083E-1
7.906654E-1
6.19635E-1
4.8518246E-1
5.0119495E-1
2.678199E-1
4.0481687E-1
3.661381E-1
5.339099E-1
7.394517E-1
4.9931407E-1
1.8065996E-3
4.1463096E-2
9.720832E-1
6.4692605E-1
8.2865894E-2
6.604792E-1
5.675825E-1
1.4745127E-1
2.0120735E-1
9.2750704E-1
8.4156287E-1
3.021713E-1
8.9683354E-1
9.8782855E-1
3.1129622E-1
8.906684E-1
9.4777155E-1
9.272955E-1
8.350931E-1
9.330674E-1
4.683733E-1
5.5317044E-1
9.4562405E-1
7.0727035E-2
5.508229E-1
3.4354383E-1
4.3010834E-1
1.7288147E-2
9.7161424E-1
6.4525115E-1
7.277713E-1
5.171868E-1
9.779167E-1
9.0071356E-1
3.991377E-1
5.7072574E-1
1.9257589E-1
5.0499773E-1
3.3151716E-1
4.0655252E-1
8.606248E-1
3.0203757E-1
3.614049E-1
8.287251E-1
7.5797063E-1
3.21195E-1
9.0663826E-1
5.6774706E-1
6.964075E-1
4.2037794E-1
1.3778843E-1
2.1273755E-1
6.5757143E-1
2.1047094E-1
9.9670164E-2
4.520557E-1
5.429787E-1
8.8758034E-1
4.1662198E-1
9.077583E-1
9.055492E-1
1.1039605E-1
9.943718E-1
8.222672E-1
2.7457625E-1
4.180046E-1
7.066798E-1
5.215854E-1
3.176239E-1
8.628603E-1
6.2879527E-1
4.8998827E-1
1.3971816E-1
6.5214413E-1
2.2758357E-1
9.1408914E-1
3.003255E-1
3.5838667E-1
7.589084E-1
3.8143784E-1
6.594968E-1
7.5504905E-1
8.0949545E-1
8.7204933E-1
6.7359346E-1
2.7356368E-1
9.6969813E-1
4.225527E-1
5.5394816E-1
5.301866E-1
7.565136E-2
1.3832235E-1
2.0495994E-1
8.1558007E-1
1.995063E-1
3.0043826E-1
3.242307E-1
9.2761517E-1
5.0426143E-1
5.8112025E-1
6.58941E-1
3.2589728E-1
9.4680417E-1
9.972926E-1
8.4410423E-1
2.7587128E-1
6.786945E-1
1.5364133E-1
4.4200283E-1
4.1821712E-1
1.24094516E-1
2.6186368E-1
6.491149E-1
6.393026E-1
3.320571E-1
6.9710064E-1
8.5091823E-1
6.229635E-1
2.5047407E-1
8.227486E-1
5.1008385E-1
1.1052179E-1
7.3143137E-1
1.4732619E-1
4.5777312E-1
6.4177215E-1
8.987389E-2
6.255241E-1
3.2657632E-1
9.287111E-1
4.0279087E-1
9.47388E-2
8.26032E-1
8.5966355E-1
3.7117574E-1
5.322892E-1
7.719273E-1
2.880683E-1
5.6094427E-2
8.3894897E-1
5.23161E-1
9.085381E-1
4.6088845E-1
6.423581E-1
1.7817296E-2
3.6241052E-1
2.128329E-1
6.3446563E-1
9.333433E-1
4.7067115E-1
9.0241295E-1
4.6188143E-1
4.994201E-1
7.5020707E-1
5.8047223E-1
2.2392072E-1
9.1284716E-1
4.321187E-1
4.2559376E-1
7.230818E-1
9.5967185E-1
8.6921036E-1
3.6380622E-1
9.2009485E-1
4.0966645E-1
5.054497E-1
1.6320667E-1
6.505587E-1
6.3555235E-1
4.9247316E-1
3.886739E-1
5.0642383E-1
9.529295E-1
8.969202E-1
4.0555432E-1
9.4124174E-1
6.2720877E-1
4.9502584E-3
6.382792E-1
2.20178E-1
7.9797786E-1
9.576676E-1
3.6994094E-1
2.7614713E-1
6.295083E-1
6.085356E-1
2.0543523E-1
5.867924E-1
6.24001E-1
2.4631992E-1
8.160455E-1
4.2715594E-2
1.7125636E-1
3.979533E-1
7.558217E-1
6.3975847E-1
4.800103E-1
6.951588E-1
9.0599585E-1
1.4194123E-1
5.305045E-1
9.9075454E-1
4.001563E-1
7.502106E-1
3.7941948E-2
2.7261174E-1
9.8505276E-1
2.925061E-1
4.1828394E-1
3.7493974E-1
9.5813113E-1
6.169024E-1
4.6159923E-1
2.8939658E-1
7.6150835E-1
8.080269E-2
6.175005E-1
5.591441E-1
3.9240566E-1
8.8769037E-1
9.4213635E-1
4.7798347E-1
6.842759E-1
2.6731622E-1
9.7938037E-1
9.153717E-1
9.4355404E-1
3.8147795E-1
2.9181233E-2
6.008489E-1
7.201581E-1
7.0549953E-1
9.7954386E-1
5.6746924E-1
1.9016153E-1
9.682354E-1
2.8681195E-1
1.9068138E-1
8.847741E-2
1.3299644E-1
7.836895E-1
6.0536045E-1
1.1711017E-1
9.0318155E-1
9.360681E-1
1.972767E-2
2.339771E-1
3.2290012E-1
8.82695E-1
6.965743E-1
9.101556E-1
1.7435306E-1
5.891758E-1
2.2937238E-1
4.2878243E-1
2.939239E-1
8.9427936E-1
1.9282474E-1
1.8257089E-1
6.161512E-1
8.536278E-1
2.539406E-1
2.0541644E-1
7.9342955E-1
4.831558E-1
5.094908E-1
8.049173E-1
3.1586123E-1
5.682786E-1
8.8007385E-1
9.004716E-1
1.9614732E-1
6.195273E-1
3.789616E-1
8.894151E-1
4.2300764E-1
8.4020746E-1
9.946842E-1
6.855598E-2
6.903156E-1
1.8885534E-1
1.448426E-1
7.1151525E-1
8.643335E-1
5.4916763E-1
8.5657686E-2
8.318722E-1
5.771182E-1
5.9121597E-1
1.3589552E-1
8.6673933E-1
2.737068E-1
1.2954497E-1
1.0082435E-1
6.5228856E-1
1.010658E-1
3.6258024E-1
6.706254E-2
4.215362E-1
3.8834417E-1
6.663084E-1
9.094867E-1
3.070919E-1
8.7941235E-1
9.99061E-1
4.8104733E-1
1.464209E-1
1.3541768E-2
6.741902E-2
4.7988242E-1
5.7638305E-1
5.691691E-1
1.2823252E-1
6.0322905E-1
2.36822E-1
3.709673E-2
7.178451E-1
1.5433867E-1
6.540177E-1
7.354289E-1
9.258727E-1
4.5997182E-1
8.340334E-1
5.4591566E-1
8.7639725E-1
2.832258E-1
2.0385101E-1
3.6904982E-1
1.692247E-1
2.0982733E-1
7.394557E-1
8.9209294E-1
4.0933362E-1
7.374671E-1
6.395601E-1
9.4359034E-1
1.716586E-1
3.1290853E-1
7.7591044E-1
5.8291084E-1
8.149818E-1
2.6222053E-1
6.8481183E-1
6.6661555E-1
5.6431097E-1
5.936165E-1
7.431714E-1
1.6317552E-2
3.79878E-1
5.7247156E-1
1.7606023E-1
9.210038E-2
3.335259E-1
4.8332825E-1
9.8852116E-1
3.061873E-1
4.1857758E-1
1.8337555E-1
1.3342457E-1
7.281436E-1
1.9922793E-1
7.389818E-2
2.1368697E-1
6.313891E-1
8.461755E-1
6.242572E-1
8.725433E-1
3.7718862E-1
2.1675089E-1
5.033102E-1
9.751233E-1
2.962595E-1
9.2782325E-1
4.6884272E-1
3.3307037E-1
8.075865E-2
5.0773567E-1
9.189028E-1
2.521112E-2
4.879928E-1
5.334385E-1
5.564838E-1
9.762114E-1
9.5927095E-1
2.4148053E-1
7.3410165E-1
8.861232E-1
2.521311E-1
6.127361E-1
5.9077275E-1
7.479553E-1
2.0998928E-1
2.7393797E-1
6.6691697E-1
9.222082E-1
2.958584E-1
9.251126E-1
7.9486847E-1
8.734587E-2
3.2623643E-1
2.1258108E-1
5.640162E-1
3.5118476E-1
6.1367005E-1
8.761084E-1
8.360544E-3
1.0193661E-1
9.1301E-1
7.7018887E-1
9.953897E-1
9.2644054E-1
7.6588196E-1
3.646378E-1
4.3797815E-1
1.08957276E-1
7.8778774E-1
4.6436518E-1
5.92668E-1
8.870332E-1
6.585001E-1
3.6252406E-1
3.788706E-2
9.610869E-2
1.06392644E-1
9.842363E-1
9.207503E-1
5.27099E-1
1.7803638E-1
5.6460506E-1
1.3819265E-1
9.0212333E-1
5.026003E-1
7.8355706E-1
4.2854495E-2
4.55719E-1
9.563587E-1
3.0685002E-1
7.226041E-1
3.4122917E-1
5.1547706E-1
5.984454E-1
8.140568E-2
3.001814E-1
9.820594E-1
9.4469917E-1
1.13404326E-1
2.712491E-1
1.182578E-2
7.5824636E-1
9.053506E-1
9.160537E-1
2.3588361E-1
5.566268E-1
7.248846E-2
8.693701E-2
7.769174E-1
2.6779378E-2
2.1306103E-1
6.3038224E-1
1.07533954E-1
1.1053814E-2
9.01779E-1
6.749018E-1
8.0932707E-1
5.6938916E-1
2.1055384E-1
7.439596E-1
5.6932604E-1
2.0216574E-1
4.875172E-1
6.122964E-1
6.509905E-1
7.619837E-1
6.4231193E-1
2.3431295E-1
7.3295695E-1
6.448053E-1
2.9229409E-1
9.598732E-1
2.9090843E-1
8.85446E-1
5.9660757E-1
6.322408E-1
6.7953277E-1
8.9637285E-1
2.8390107E-1
7.825343E-1
3.4785005E-1
9.8371214E-1
4.3346047E-2
7.478345E-1
7.5931096E-1
8.8011056E-1
5.692642E-1
8.54356E-1
4.3719065E-1
8.2426894E-1
9.419858E-2
3.1325424E-1
8.6375093E-1
7.7381946E-2
2.0908242E-1
5.826335E-1
8.08305E-1
1.6825444E-1
5.1785475E-1
8.402726E-1
3.1437808E-1
9.422884E-1
5.381292E-1
6.9782495E-1
8.508367E-1
4.2941248E-1
5.22935E-1
4.59909E-1
4.526057E-1
6.85243E-1
1.2795039E-1
8.496033E-1
4.8662645E-1
3.253145E-1
2.9098532E-1
9.7569644E-1
5.1984966E-1
5.474509E-1
1.5907073E-1
2.2481865E-1
4.489112E-1
4.3504548E-1
