%%MatrixMarket matrix array real general
%
10 10
2.3028694E-1
4.1181013E-1
7.0326334E-1
8.035818E-1
6.335693E-1
8.926646E-2
9.296033E-1
1.8274486E-1
3.1457916E-1
2.375661E-2
5.376565E-1
6.476805E-1
3.9574265E-2
4.0594723E-2
5.70698E-1
3.1886098E-1
6.1538446E-1
9.1352856E-1
5.276078E-1
4.339186E-1
7.595216E-1
2.3908368E-1
9.119498E-1
7.2097594E-1
9.833654E-1
3.2401424E-2
2.8134257E-1
3.12183E-1
2.1565416E-1
8.942028E-1
3.726673E-1
2.0338002E-1
1.5207602E-1
4.7767124E-1
4.777773E-1
2.62106E-1
8.2418615E-1
2.7841672E-1
1.6955811E-1
5.2959174E-1
7.86158E-1
6.7295647E-1
4.8586738E-1
3.0489087E-1
3.8698867E-1
9.7449176E-2
9.210314E-1
9.640254E-1
7.177504E-1
9.281054E-1
9.575137E-1
8.0858743E-1
1.4139375E-1
3.290056E-1
3.9607134E-1
4.8862913E-1
3.8623106E-1
4.877913E-1
3.4335554E-1
2.6325184E-1
7.8056484E-1
6.9112706E-1
2.2925614E-1
1.896408E-1
5.904951E-1
3.2011505E-2
1.9900024E-1
1.1895032E-1
2.6097238E-1
1.5884474E-1
8.910795E-1
9.856002E-1
2.824445E-1
9.8484915E-1
3.7892348E-1
3.543175E-2
4.8913231E-1
1.416433E-1
6.933645E-1
3.4742486E-1
3.8385916E-1
4.929856E-1
5.305374E-1
2.4538185E-1
9.114313E-1
5.7087314E-1
9.1905E-2
2.9516453E-1
3.5675186E-1
2.9187706E-1
1.8844073E-1
9.2753984E-2
2.1029831E-1
3.15381E-2
6.439354E-1
5.965171E-1
2.1787125E-1
2.1835405E-1
9.6123534E-1
3.5125333E-1
